vertex(1..100).
edge(2, 93).
edge(3, 60).
edge(3, 83).
edge(3, 84).
edge(4, 28).
edge(4, 30).
edge(4, 62).
edge(4, 98).
edge(4, 24).
edge(5, 93).
edge(5, 64).
edge(5, 14).
edge(6, 66).
edge(7, 65).
edge(7, 38).
edge(7, 43).
edge(7, 84).
edge(7, 89).
edge(7, 100).
edge(7, 97).
edge(9, 63).
edge(9, 82).
edge(10, 27).
edge(10, 65).
edge(10, 30).
edge(12, 10).
edge(13, 90).
edge(13, 59).
edge(14, 95).
edge(14, 30).
edge(14, 65).
edge(14, 27).
edge(16, 77).
edge(16, 41).
edge(16, 71).
edge(16, 91).
edge(16, 65).
edge(16, 87).
edge(17, 34).
edge(17, 87).
edge(17, 92).
edge(17, 33).
edge(18, 62).
edge(18, 89).
edge(18, 83).
edge(18, 87).
edge(19, 38).
edge(20, 28).
edge(20, 80).
edge(21, 77).
edge(21, 55).
edge(21, 20).
edge(22, 59).
edge(22, 19).
edge(22, 54).
edge(23, 11).
edge(24, 36).
edge(24, 93).
edge(25, 24).
edge(25, 22).
edge(25, 28).
edge(25, 38).
edge(25, 35).
edge(26, 5).
edge(26, 89).
edge(28, 61).
edge(28, 27).
edge(28, 77).
edge(28, 14).
edge(29, 69).
edge(29, 12).
edge(29, 62).
edge(30, 27).
edge(32, 44).
edge(32, 31).
edge(32, 39).
edge(33, 12).
edge(33, 30).
edge(33, 65).
edge(34, 54).
edge(34, 43).
edge(34, 77).
edge(34, 95).
edge(35, 19).
edge(36, 56).
edge(37, 54).
edge(37, 42).
edge(37, 46).
edge(37, 59).
edge(37, 69).
edge(37, 96).
edge(37, 10).
edge(38, 43).
edge(38, 95).
edge(38, 65).
edge(39, 31).
edge(39, 96).
edge(39, 24).
edge(39, 86).
edge(39, 23).
edge(39, 53).
edge(40, 42).
edge(40, 39).
edge(40, 10).
edge(41, 10).
edge(41, 27).
edge(41, 43).
edge(42, 68).
edge(42, 77).
edge(43, 30).
edge(43, 65).
edge(43, 27).
edge(44, 41).
edge(44, 33).
edge(44, 12).
edge(45, 40).
edge(45, 63).
edge(45, 99).
edge(45, 56).
edge(46, 89).
edge(46, 54).
edge(46, 5).
edge(46, 2).
edge(47, 6).
edge(47, 48).
edge(47, 70).
edge(47, 74).
edge(47, 78).
edge(47, 81).
edge(47, 90).
edge(48, 92).
edge(48, 52).
edge(48, 57).
edge(49, 33).
edge(49, 87).
edge(50, 4).
edge(50, 91).
edge(51, 95).
edge(51, 34).
edge(52, 83).
edge(52, 87).
edge(53, 87).
edge(53, 10).
edge(53, 35).
edge(53, 56).
edge(55, 23).
edge(55, 43).
edge(55, 27).
edge(58, 34).
edge(58, 1).
edge(58, 99).
edge(59, 86).
edge(59, 30).
edge(60, 1).
edge(60, 75).
edge(60, 55).
edge(61, 11).
edge(63, 34).
edge(63, 67).
edge(63, 44).
edge(64, 14).
edge(66, 93).
edge(66, 22).
edge(68, 67).
edge(68, 22).
edge(68, 59).
edge(68, 52).
edge(69, 56).
edge(69, 35).
edge(69, 59).
edge(70, 86).
edge(70, 95).
edge(71, 77).
edge(72, 9).
edge(72, 19).
edge(72, 21).
edge(72, 24).
edge(72, 25).
edge(72, 58).
edge(72, 64).
edge(72, 75).
edge(72, 93).
edge(72, 99).
edge(73, 2).
edge(73, 12).
edge(73, 28).
edge(73, 35).
edge(73, 36).
edge(73, 44).
edge(73, 52).
edge(73, 53).
edge(74, 18).
edge(74, 38).
edge(74, 10).
edge(75, 11).
edge(75, 29).
edge(75, 61).
edge(75, 87).
edge(76, 51).
edge(76, 48).
edge(78, 25).
edge(78, 57).
edge(78, 92).
edge(79, 15).
edge(79, 20).
edge(79, 22).
edge(79, 33).
edge(79, 49).
edge(79, 61).
edge(79, 66).
edge(79, 68).
edge(79, 82).
edge(81, 53).
edge(81, 80).
edge(81, 19).
edge(81, 89).
edge(81, 87).
edge(82, 83).
edge(82, 38).
edge(83, 44).
edge(83, 33).
edge(83, 95).
edge(84, 86).
edge(84, 6).
edge(84, 25).
edge(84, 78).
edge(85, 26).
edge(85, 97).
edge(87, 30).
edge(87, 14).
edge(88, 57).
edge(88, 5).
edge(88, 10).
edge(88, 13).
edge(88, 18).
edge(88, 23).
edge(88, 29).
edge(88, 30).
edge(89, 77).
edge(89, 33).
edge(90, 52).
edge(90, 77).
edge(91, 96).
edge(91, 31).
edge(92, 53).
edge(92, 93).
edge(93, 64).
edge(94, 14).
edge(94, 32).
edge(94, 39).
edge(94, 55).
edge(94, 95).
edge(94, 98).
edge(94, 99).
edge(94, 5).
edge(95, 43).
edge(95, 30).
edge(96, 98).
edge(96, 43).
edge(97, 8).
edge(97, 11).
edge(97, 44).
edge(97, 53).
edge(98, 99).
edge(99, 33).
edge(99, 30).
edge(100, 80).
edge(100, 99).
input(3).
input(37).
input(7).
input(72).
input(73).
input(76).
input(45).
input(79).
input(16).
input(17).
input(50).
input(47).
input(85).
input(88).
input(94).
output(1).
output(65).
output(67).
output(8).
output(11).
output(77).
output(15).
output(80).
output(54).
output(86).
output(56).
output(57).
output(27).
output(62).
output(31).
