vertex(1..90).
edge(1, 28).
edge(3, 1).
edge(3, 6).
edge(3, 20).
edge(3, 22).
edge(3, 36).
edge(3, 53).
edge(3, 56).
edge(3, 61).
edge(3, 88).
edge(3, 89).
edge(3, 28).
edge(3, 81).
edge(4, 48).
edge(4, 38).
edge(5, 73).
edge(5, 89).
edge(5, 22).
edge(5, 35).
edge(6, 76).
edge(6, 72).
edge(6, 59).
edge(7, 70).
edge(8, 35).
edge(8, 76).
edge(9, 32).
edge(9, 15).
edge(9, 23).
edge(10, 82).
edge(10, 35).
edge(10, 29).
edge(11, 16).
edge(12, 87).
edge(12, 43).
edge(12, 53).
edge(13, 77).
edge(13, 28).
edge(14, 78).
edge(14, 76).
edge(17, 58).
edge(17, 48).
edge(18, 68).
edge(18, 80).
edge(18, 60).
edge(18, 7).
edge(19, 77).
edge(19, 82).
edge(19, 89).
edge(19, 24).
edge(20, 41).
edge(20, 72).
edge(20, 57).
edge(20, 11).
edge(21, 28).
edge(21, 75).
edge(21, 44).
edge(21, 83).
edge(21, 10).
edge(21, 15).
edge(22, 73).
edge(22, 30).
edge(22, 11).
edge(23, 89).
edge(23, 22).
edge(23, 79).
edge(24, 52).
edge(24, 70).
edge(25, 81).
edge(25, 36).
edge(25, 17).
edge(26, 22).
edge(26, 85).
edge(26, 25).
edge(27, 5).
edge(27, 20).
edge(27, 38).
edge(27, 42).
edge(29, 79).
edge(29, 58).
edge(30, 15).
edge(31, 49).
edge(32, 42).
edge(32, 52).
edge(33, 69).
edge(33, 2).
edge(33, 19).
edge(34, 20).
edge(34, 51).
edge(34, 27).
edge(35, 60).
edge(35, 90).
edge(35, 70).
edge(35, 89).
edge(35, 72).
edge(35, 85).
edge(36, 38).
edge(37, 51).
edge(37, 27).
edge(38, 43).
edge(38, 70).
edge(38, 11).
edge(38, 13).
edge(38, 7).
edge(39, 87).
edge(39, 5).
edge(39, 8).
edge(39, 14).
edge(39, 33).
edge(39, 81).
edge(39, 4).
edge(40, 44).
edge(40, 69).
edge(40, 81).
edge(41, 46).
edge(41, 53).
edge(41, 22).
edge(41, 87).
edge(41, 43).
edge(41, 85).
edge(41, 75).
edge(42, 35).
edge(42, 28).
edge(42, 30).
edge(42, 57).
edge(43, 30).
edge(43, 72).
edge(45, 9).
edge(45, 35).
edge(45, 43).
edge(45, 17).
edge(47, 13).
edge(47, 21).
edge(47, 32).
edge(47, 41).
edge(47, 83).
edge(48, 75).
edge(48, 20).
edge(48, 57).
edge(49, 72).
edge(50, 35).
edge(50, 87).
edge(50, 28).
edge(50, 69).
edge(53, 15).
edge(53, 77).
edge(54, 23).
edge(54, 26).
edge(54, 29).
edge(54, 38).
edge(54, 57).
edge(54, 77).
edge(54, 55).
edge(55, 29).
edge(55, 17).
edge(55, 72).
edge(56, 36).
edge(57, 11).
edge(57, 46).
edge(57, 13).
edge(57, 85).
edge(58, 57).
edge(58, 77).
edge(58, 28).
edge(59, 89).
edge(59, 49).
edge(59, 43).
edge(61, 38).
edge(61, 29).
edge(61, 67).
edge(61, 5).
edge(61, 41).
edge(62, 4).
edge(62, 49).
edge(62, 55).
edge(62, 59).
edge(62, 70).
edge(62, 76).
edge(63, 7).
edge(63, 11).
edge(63, 19).
edge(63, 31).
edge(63, 48).
edge(63, 71).
edge(63, 23).
edge(63, 69).
edge(64, 24).
edge(64, 30).
edge(64, 78).
edge(64, 83).
edge(64, 90).
edge(64, 23).
edge(65, 80).
edge(65, 36).
edge(65, 15).
edge(65, 89).
edge(65, 29).
edge(66, 2).
edge(66, 79).
edge(66, 40).
edge(66, 69).
edge(66, 17).
edge(66, 71).
edge(67, 22).
edge(69, 12).
edge(69, 43).
edge(69, 68).
edge(70, 72).
edge(70, 15).
edge(70, 30).
edge(71, 29).
edge(71, 81).
edge(71, 51).
edge(72, 30).
edge(72, 15).
edge(74, 18).
edge(74, 25).
edge(74, 27).
edge(74, 37).
edge(74, 42).
edge(74, 58).
edge(74, 72).
edge(74, 80).
edge(74, 82).
edge(74, 85).
edge(74, 76).
edge(74, 26).
edge(76, 23).
edge(76, 77).
edge(77, 7).
edge(78, 46).
edge(78, 58).
edge(78, 13).
edge(80, 41).
edge(81, 87).
edge(81, 22).
edge(81, 30).
edge(81, 27).
edge(82, 13).
edge(82, 70).
edge(82, 42).
edge(83, 16).
edge(83, 67).
edge(84, 12).
edge(84, 17).
edge(84, 65).
edge(84, 67).
edge(84, 90).
edge(84, 87).
edge(84, 83).
edge(84, 70).
edge(84, 75).
edge(84, 41).
edge(85, 75).
edge(85, 28).
edge(85, 16).
edge(85, 70).
edge(85, 77).
edge(86, 10).
edge(86, 34).
edge(86, 50).
edge(86, 56).
edge(86, 17).
edge(88, 46).
edge(88, 9).
edge(88, 72).
edge(88, 10).
edge(88, 69).
edge(88, 89).
edge(88, 81).
edge(89, 85).
edge(90, 28).
edge(90, 72).
input(66).
input(3).
input(39).
input(74).
input(45).
input(47).
input(84).
input(86).
input(54).
input(62).
input(63).
input(64).
output(2).
output(68).
output(73).
output(28).
output(75).
output(44).
output(46).
output(79).
output(16).
output(15).
output(51).
output(52).
output(87).
output(60).
