vertex(1..90).
edge(1, 65).
edge(2, 63).
edge(2, 8).
edge(2, 28).
edge(3, 56).
edge(3, 62).
edge(3, 59).
edge(3, 4).
edge(4, 15).
edge(4, 57).
edge(4, 9).
edge(4, 6).
edge(4, 85).
edge(4, 62).
edge(4, 51).
edge(4, 73).
edge(5, 73).
edge(5, 50).
edge(5, 55).
edge(5, 48).
edge(6, 9).
edge(6, 7).
edge(6, 80).
edge(6, 13).
edge(6, 55).
edge(6, 51).
edge(6, 68).
edge(8, 10).
edge(8, 7).
edge(8, 71).
edge(8, 86).
edge(9, 80).
edge(9, 63).
edge(9, 2).
edge(9, 86).
edge(9, 10).
edge(10, 86).
edge(10, 40).
edge(11, 7).
edge(11, 45).
edge(11, 16).
edge(11, 15).
edge(11, 41).
edge(11, 89).
edge(13, 59).
edge(13, 39).
edge(13, 75).
edge(14, 27).
edge(14, 20).
edge(14, 57).
edge(16, 28).
edge(16, 45).
edge(16, 81).
edge(16, 59).
edge(16, 20).
edge(17, 73).
edge(17, 50).
edge(17, 58).
edge(18, 3).
edge(18, 29).
edge(18, 35).
edge(18, 47).
edge(18, 79).
edge(18, 82).
edge(18, 86).
edge(18, 87).
edge(18, 77).
edge(18, 89).
edge(19, 50).
edge(19, 37).
edge(19, 46).
edge(20, 62).
edge(20, 59).
edge(20, 44).
edge(20, 75).
edge(20, 9).
edge(21, 3).
edge(21, 2).
edge(22, 32).
edge(22, 10).
edge(22, 63).
edge(22, 50).
edge(23, 48).
edge(23, 63).
edge(23, 59).
edge(24, 46).
edge(24, 28).
edge(24, 40).
edge(25, 61).
edge(25, 71).
edge(25, 4).
edge(26, 42).
edge(26, 65).
edge(26, 83).
edge(26, 55).
edge(28, 40).
edge(29, 76).
edge(29, 50).
edge(30, 9).
edge(30, 13).
edge(30, 22).
edge(30, 39).
edge(30, 50).
edge(30, 88).
edge(31, 64).
edge(31, 2).
edge(31, 83).
edge(31, 69).
edge(31, 22).
edge(32, 77).
edge(32, 39).
edge(32, 80).
edge(32, 86).
edge(32, 2).
edge(33, 89).
edge(33, 65).
edge(33, 46).
edge(33, 71).
edge(33, 86).
edge(33, 51).
edge(33, 56).
edge(34, 9).
edge(34, 23).
edge(34, 65).
edge(34, 4).
edge(34, 75).
edge(35, 56).
edge(35, 48).
edge(36, 39).
edge(36, 63).
edge(36, 7).
edge(37, 24).
edge(37, 9).
edge(37, 56).
edge(38, 2).
edge(38, 11).
edge(38, 32).
edge(38, 56).
edge(38, 80).
edge(38, 73).
edge(38, 10).
edge(39, 71).
edge(39, 63).
edge(41, 80).
edge(41, 9).
edge(41, 39).
edge(41, 23).
edge(42, 12).
edge(42, 23).
edge(42, 8).
edge(42, 10).
edge(43, 48).
edge(43, 8).
edge(43, 16).
edge(43, 21).
edge(43, 23).
edge(43, 31).
edge(43, 69).
edge(43, 76).
edge(43, 78).
edge(43, 81).
edge(43, 84).
edge(43, 3).
edge(43, 64).
edge(43, 12).
edge(43, 51).
edge(44, 51).
edge(44, 10).
edge(44, 71).
edge(45, 40).
edge(45, 37).
edge(45, 27).
edge(45, 85).
edge(45, 39).
edge(45, 62).
edge(47, 19).
edge(47, 81).
edge(47, 74).
edge(49, 33).
edge(49, 51).
edge(49, 68).
edge(49, 72).
edge(49, 85).
edge(49, 28).
edge(49, 24).
edge(49, 21).
edge(50, 46).
edge(50, 51).
edge(50, 62).
edge(51, 71).
edge(51, 7).
edge(51, 10).
edge(51, 40).
edge(51, 39).
edge(51, 86).
edge(52, 6).
edge(52, 17).
edge(52, 20).
edge(52, 24).
edge(52, 16).
edge(52, 59).
edge(52, 78).
edge(53, 1).
edge(53, 14).
edge(53, 28).
edge(53, 41).
edge(53, 44).
edge(53, 45).
edge(53, 57).
edge(53, 59).
edge(53, 67).
edge(53, 23).
edge(53, 33).
edge(53, 90).
edge(53, 66).
edge(53, 75).
edge(53, 85).
edge(54, 37).
edge(54, 62).
edge(56, 50).
edge(56, 39).
edge(56, 74).
edge(56, 15).
edge(56, 46).
edge(57, 76).
edge(57, 50).
edge(57, 63).
edge(57, 24).
edge(57, 32).
edge(57, 39).
edge(58, 85).
edge(58, 8).
edge(58, 7).
edge(58, 23).
edge(59, 46).
edge(59, 2).
edge(59, 63).
edge(59, 76).
edge(59, 7).
edge(60, 10).
edge(60, 19).
edge(60, 37).
edge(60, 54).
edge(60, 73).
edge(60, 89).
edge(60, 90).
edge(60, 80).
edge(60, 47).
edge(60, 13).
edge(60, 24).
edge(64, 57).
edge(64, 8).
edge(64, 84).
edge(64, 44).
edge(64, 71).
edge(65, 66).
edge(65, 74).
edge(65, 75).
edge(65, 22).
edge(65, 48).
edge(67, 4).
edge(67, 56).
edge(67, 34).
edge(67, 63).
edge(67, 76).
edge(68, 36).
edge(68, 22).
edge(68, 44).
edge(68, 28).
edge(68, 76).
edge(68, 74).
edge(68, 40).
edge(69, 83).
edge(69, 74).
edge(69, 2).
edge(70, 4).
edge(70, 5).
edge(70, 25).
edge(70, 34).
edge(70, 36).
edge(70, 58).
edge(70, 64).
edge(70, 71).
edge(71, 7).
edge(71, 86).
edge(71, 28).
edge(72, 27).
edge(72, 58).
edge(72, 6).
edge(73, 10).
edge(73, 9).
edge(73, 71).
edge(73, 8).
edge(73, 63).
edge(76, 86).
edge(76, 62).
edge(76, 2).
edge(76, 77).
edge(78, 6).
edge(78, 74).
edge(78, 61).
edge(78, 39).
edge(78, 1).
edge(78, 4).
edge(78, 51).
edge(79, 88).
edge(79, 58).
edge(79, 56).
edge(79, 80).
edge(79, 48).
edge(80, 62).
edge(80, 86).
edge(81, 84).
edge(81, 86).
edge(81, 4).
edge(81, 48).
edge(82, 25).
edge(82, 68).
edge(83, 6).
edge(83, 86).
edge(83, 89).
edge(83, 62).
edge(84, 55).
edge(84, 62).
edge(84, 68).
edge(84, 4).
edge(84, 44).
edge(85, 44).
edge(85, 63).
edge(86, 28).
edge(86, 40).
edge(87, 84).
edge(87, 7).
edge(87, 23).
edge(88, 86).
edge(88, 50).
edge(89, 13).
edge(89, 2).
edge(90, 75).
edge(90, 19).
edge(90, 65).
edge(90, 63).
edge(90, 28).
edge(90, 34).
input(70).
input(38).
input(43).
input(49).
input(18).
input(52).
input(53).
input(26).
input(60).
input(30).
output(66).
output(7).
output(40).
output(74).
output(75).
output(12).
output(77).
output(46).
output(15).
output(48).
output(55).
output(27).
output(61).
output(62).
output(63).
