vertex(1..90).
edge(1, 41).
edge(1, 67).
edge(1, 70).
edge(3, 84).
edge(3, 55).
edge(3, 39).
edge(3, 74).
edge(6, 32).
edge(7, 64).
edge(7, 43).
edge(8, 69).
edge(8, 5).
edge(8, 63).
edge(8, 86).
edge(8, 52).
edge(8, 30).
edge(8, 81).
edge(8, 42).
edge(9, 6).
edge(11, 70).
edge(12, 13).
edge(12, 19).
edge(12, 44).
edge(12, 51).
edge(12, 9).
edge(13, 90).
edge(13, 59).
edge(13, 1).
edge(13, 64).
edge(14, 64).
edge(14, 63).
edge(15, 31).
edge(15, 1).
edge(15, 6).
edge(15, 8).
edge(15, 11).
edge(15, 51).
edge(15, 63).
edge(15, 68).
edge(15, 79).
edge(15, 85).
edge(15, 90).
edge(15, 70).
edge(16, 75).
edge(16, 23).
edge(16, 65).
edge(16, 33).
edge(16, 32).
edge(16, 9).
edge(17, 28).
edge(17, 83).
edge(17, 8).
edge(17, 82).
edge(18, 63).
edge(18, 33).
edge(19, 22).
edge(19, 23).
edge(21, 16).
edge(21, 17).
edge(21, 33).
edge(21, 53).
edge(21, 57).
edge(21, 64).
edge(21, 88).
edge(21, 20).
edge(21, 66).
edge(21, 40).
edge(22, 23).
edge(22, 55).
edge(22, 2).
edge(24, 37).
edge(24, 5).
edge(24, 43).
edge(24, 55).
edge(25, 67).
edge(25, 7).
edge(26, 55).
edge(26, 56).
edge(26, 90).
edge(26, 29).
edge(26, 33).
edge(26, 5).
edge(26, 84).
edge(27, 51).
edge(27, 71).
edge(27, 7).
edge(27, 18).
edge(27, 77).
edge(29, 54).
edge(29, 42).
edge(29, 66).
edge(29, 10).
edge(29, 7).
edge(29, 18).
edge(29, 64).
edge(29, 33).
edge(33, 9).
edge(33, 5).
edge(33, 54).
edge(34, 14).
edge(34, 25).
edge(34, 40).
edge(34, 49).
edge(34, 65).
edge(34, 75).
edge(34, 82).
edge(34, 20).
edge(34, 23).
edge(35, 2).
edge(35, 30).
edge(35, 23).
edge(36, 83).
edge(36, 81).
edge(36, 35).
edge(36, 51).
edge(36, 89).
edge(36, 87).
edge(36, 86).
edge(37, 64).
edge(37, 6).
edge(37, 5).
edge(37, 2).
edge(37, 9).
edge(38, 74).
edge(38, 77).
edge(39, 4).
edge(39, 53).
edge(39, 52).
edge(39, 41).
edge(39, 65).
edge(39, 18).
edge(40, 86).
edge(40, 2).
edge(40, 33).
edge(42, 74).
edge(42, 65).
edge(43, 67).
edge(43, 23).
edge(44, 40).
edge(44, 65).
edge(45, 7).
edge(45, 22).
edge(45, 35).
edge(45, 36).
edge(45, 37).
edge(45, 38).
edge(45, 69).
edge(45, 81).
edge(45, 84).
edge(45, 86).
edge(45, 73).
edge(45, 32).
edge(45, 68).
edge(46, 24).
edge(46, 51).
edge(46, 7).
edge(46, 57).
edge(46, 41).
edge(46, 56).
edge(47, 5).
edge(47, 90).
edge(47, 43).
edge(47, 81).
edge(48, 9).
edge(48, 27).
edge(48, 47).
edge(48, 58).
edge(48, 62).
edge(48, 70).
edge(48, 72).
edge(48, 50).
edge(48, 75).
edge(48, 19).
edge(49, 8).
edge(49, 38).
edge(50, 18).
edge(50, 35).
edge(50, 83).
edge(50, 43).
edge(50, 55).
edge(51, 75).
edge(51, 69).
edge(51, 32).
edge(52, 10).
edge(52, 16).
edge(52, 20).
edge(52, 55).
edge(52, 2).
edge(52, 24).
edge(53, 10).
edge(53, 88).
edge(53, 67).
edge(53, 40).
edge(55, 32).
edge(55, 30).
edge(55, 41).
edge(55, 65).
edge(55, 5).
edge(55, 4).
edge(57, 63).
edge(57, 42).
edge(57, 54).
edge(58, 84).
edge(58, 83).
edge(58, 88).
edge(58, 29).
edge(58, 52).
edge(59, 53).
edge(59, 35).
edge(59, 3).
edge(60, 59).
edge(60, 73).
edge(60, 74).
edge(60, 77).
edge(60, 78).
edge(60, 35).
edge(61, 3).
edge(61, 42).
edge(61, 43).
edge(61, 50).
edge(61, 10).
edge(61, 66).
edge(61, 55).
edge(62, 52).
edge(63, 4).
edge(63, 35).
edge(63, 41).
edge(64, 33).
edge(65, 5).
edge(65, 2).
edge(65, 9).
edge(65, 30).
edge(65, 33).
edge(65, 54).
edge(66, 35).
edge(66, 83).
edge(68, 44).
edge(68, 46).
edge(69, 64).
edge(69, 63).
edge(69, 2).
edge(69, 86).
edge(69, 32).
edge(69, 18).
edge(69, 43).
edge(70, 56).
edge(70, 52).
edge(70, 7).
edge(70, 16).
edge(70, 84).
edge(71, 79).
edge(71, 63).
edge(71, 40).
edge(72, 55).
edge(72, 46).
edge(72, 10).
edge(73, 23).
edge(73, 32).
edge(74, 16).
edge(74, 9).
edge(74, 54).
edge(75, 54).
edge(75, 41).
edge(75, 5).
edge(76, 18).
edge(76, 24).
edge(76, 26).
edge(76, 39).
edge(76, 46).
edge(76, 52).
edge(76, 55).
edge(76, 71).
edge(76, 87).
edge(76, 89).
edge(76, 33).
edge(77, 19).
edge(77, 63).
edge(78, 5).
edge(78, 46).
edge(78, 87).
edge(78, 69).
edge(79, 43).
edge(79, 57).
edge(79, 22).
edge(79, 44).
edge(80, 29).
edge(80, 66).
edge(80, 20).
edge(80, 90).
edge(81, 20).
edge(81, 55).
edge(81, 69).
edge(81, 19).
edge(82, 65).
edge(82, 40).
edge(82, 29).
edge(82, 69).
edge(82, 35).
edge(82, 20).
edge(84, 67).
edge(84, 18).
edge(84, 2).
edge(84, 55).
edge(85, 68).
edge(85, 24).
edge(86, 41).
edge(86, 65).
edge(86, 6).
edge(87, 57).
edge(87, 33).
edge(87, 65).
edge(88, 2).
edge(88, 41).
edge(88, 5).
edge(88, 74).
edge(88, 55).
edge(89, 20).
edge(89, 51).
edge(89, 41).
edge(90, 7).
edge(90, 64).
input(34).
input(76).
input(45).
input(12).
input(15).
input(80).
input(48).
input(21).
input(60).
input(61).
output(2).
output(67).
output(4).
output(5).
output(41).
output(10).
output(83).
output(20).
output(54).
output(23).
output(56).
output(28).
output(30).
output(31).
output(32).
