vertex(1..90).
edge(1, 69).
edge(1, 16).
edge(2, 19).
edge(2, 25).
edge(2, 32).
edge(2, 16).
edge(2, 89).
edge(4, 40).
edge(4, 89).
edge(4, 74).
edge(5, 80).
edge(5, 34).
edge(6, 43).
edge(6, 64).
edge(7, 77).
edge(7, 56).
edge(8, 73).
edge(8, 31).
edge(8, 78).
edge(9, 37).
edge(9, 20).
edge(9, 71).
edge(9, 29).
edge(9, 3).
edge(9, 34).
edge(10, 19).
edge(10, 60).
edge(10, 90).
edge(11, 54).
edge(11, 3).
edge(12, 73).
edge(12, 53).
edge(13, 4).
edge(13, 15).
edge(13, 24).
edge(13, 86).
edge(13, 89).
edge(15, 70).
edge(15, 40).
edge(15, 56).
edge(15, 45).
edge(16, 34).
edge(17, 1).
edge(17, 35).
edge(17, 36).
edge(17, 43).
edge(17, 66).
edge(17, 82).
edge(17, 65).
edge(18, 6).
edge(18, 9).
edge(18, 30).
edge(18, 37).
edge(18, 39).
edge(18, 77).
edge(18, 45).
edge(19, 54).
edge(19, 59).
edge(19, 16).
edge(22, 20).
edge(22, 21).
edge(22, 8).
edge(22, 51).
edge(22, 52).
edge(22, 74).
edge(22, 76).
edge(23, 3).
edge(23, 72).
edge(23, 69).
edge(23, 67).
edge(24, 90).
edge(25, 66).
edge(26, 10).
edge(26, 33).
edge(26, 48).
edge(26, 55).
edge(26, 56).
edge(26, 87).
edge(26, 90).
edge(26, 74).
edge(27, 73).
edge(27, 80).
edge(27, 54).
edge(28, 42).
edge(28, 35).
edge(28, 77).
edge(29, 76).
edge(29, 84).
edge(30, 51).
edge(30, 87).
edge(31, 11).
edge(31, 28).
edge(32, 25).
edge(32, 34).
edge(32, 75).
edge(33, 7).
edge(33, 77).
edge(33, 76).
edge(33, 38).
edge(35, 5).
edge(36, 56).
edge(36, 16).
edge(37, 75).
edge(37, 1).
edge(37, 16).
edge(38, 16).
edge(38, 70).
edge(38, 43).
edge(39, 75).
edge(39, 54).
edge(39, 84).
edge(40, 64).
edge(40, 70).
edge(41, 53).
edge(41, 75).
edge(42, 34).
edge(42, 6).
edge(42, 70).
edge(43, 35).
edge(44, 39).
edge(44, 64).
edge(44, 6).
edge(44, 73).
edge(44, 67).
edge(45, 23).
edge(45, 66).
edge(45, 64).
edge(45, 34).
edge(45, 65).
edge(46, 65).
edge(46, 40).
edge(46, 67).
edge(47, 23).
edge(47, 72).
edge(47, 45).
edge(48, 56).
edge(48, 85).
edge(49, 5).
edge(49, 63).
edge(49, 78).
edge(49, 88).
edge(50, 74).
edge(50, 67).
edge(50, 34).
edge(51, 29).
edge(51, 45).
edge(52, 29).
edge(52, 36).
edge(52, 84).
edge(52, 67).
edge(52, 80).
edge(53, 54).
edge(53, 70).
edge(54, 23).
edge(54, 3).
edge(54, 16).
edge(54, 59).
edge(54, 72).
edge(54, 34).
edge(55, 71).
edge(55, 38).
edge(55, 65).
edge(55, 56).
edge(55, 7).
edge(55, 78).
edge(56, 1).
edge(56, 69).
edge(57, 29).
edge(57, 38).
edge(57, 80).
edge(58, 7).
edge(58, 60).
edge(60, 53).
edge(60, 51).
edge(61, 11).
edge(61, 23).
edge(61, 45).
edge(61, 54).
edge(61, 62).
edge(61, 70).
edge(61, 4).
edge(62, 44).
edge(63, 23).
edge(66, 24).
edge(67, 36).
edge(67, 56).
edge(67, 69).
edge(67, 1).
edge(68, 12).
edge(68, 42).
edge(68, 67).
edge(68, 73).
edge(68, 85).
edge(68, 75).
edge(70, 72).
edge(70, 16).
edge(70, 3).
edge(71, 52).
edge(71, 67).
edge(73, 70).
edge(73, 56).
edge(73, 34).
edge(73, 39).
edge(73, 53).
edge(74, 5).
edge(74, 39).
edge(75, 84).
edge(75, 67).
edge(75, 34).
edge(75, 5).
edge(76, 67).
edge(76, 34).
edge(76, 35).
edge(77, 5).
edge(77, 34).
edge(78, 15).
edge(78, 31).
edge(78, 14).
edge(79, 31).
edge(79, 47).
edge(79, 50).
edge(79, 38).
edge(80, 67).
edge(80, 16).
edge(81, 14).
edge(81, 40).
edge(81, 71).
edge(81, 5).
edge(82, 64).
edge(82, 11).
edge(82, 21).
edge(83, 16).
edge(83, 27).
edge(83, 28).
edge(83, 44).
edge(83, 46).
edge(83, 60).
edge(83, 80).
edge(85, 45).
edge(85, 27).
edge(86, 39).
edge(87, 73).
edge(87, 56).
edge(88, 36).
edge(88, 52).
edge(88, 72).
edge(89, 46).
edge(89, 64).
edge(89, 53).
edge(89, 56).
edge(90, 59).
input(2).
input(68).
input(41).
input(13).
input(79).
input(17).
input(18).
input(49).
input(81).
input(83).
input(22).
input(57).
input(58).
input(61).
input(26).
output(65).
output(34).
output(3).
output(69).
output(72).
output(14).
output(20).
output(21).
output(84).
output(59).
output(64).
