vertex(1..90).
edge(1, 18).
edge(1, 34).
edge(1, 81).
edge(2, 25).
edge(2, 82).
edge(3, 44).
edge(3, 82).
edge(3, 37).
edge(3, 77).
edge(3, 60).
edge(4, 61).
edge(4, 18).
edge(4, 43).
edge(4, 65).
edge(4, 50).
edge(5, 4).
edge(5, 6).
edge(5, 13).
edge(5, 32).
edge(5, 56).
edge(5, 40).
edge(6, 68).
edge(6, 61).
edge(6, 28).
edge(6, 87).
edge(6, 33).
edge(7, 17).
edge(7, 87).
edge(7, 64).
edge(7, 10).
edge(7, 80).
edge(8, 89).
edge(8, 69).
edge(8, 19).
edge(9, 52).
edge(9, 50).
edge(9, 20).
edge(10, 77).
edge(10, 37).
edge(10, 60).
edge(11, 34).
edge(11, 89).
edge(11, 43).
edge(11, 50).
edge(12, 36).
edge(12, 76).
edge(12, 42).
edge(12, 40).
edge(13, 81).
edge(13, 56).
edge(13, 51).
edge(13, 25).
edge(13, 49).
edge(13, 28).
edge(15, 76).
edge(15, 57).
edge(15, 72).
edge(16, 14).
edge(16, 7).
edge(16, 10).
edge(16, 17).
edge(16, 39).
edge(16, 52).
edge(16, 77).
edge(16, 80).
edge(16, 86).
edge(16, 37).
edge(17, 77).
edge(17, 35).
edge(17, 54).
edge(18, 22).
edge(18, 81).
edge(18, 60).
edge(18, 42).
edge(19, 40).
edge(19, 22).
edge(20, 49).
edge(20, 72).
edge(20, 76).
edge(20, 89).
edge(20, 3).
edge(20, 57).
edge(20, 87).
edge(21, 89).
edge(21, 52).
edge(21, 61).
edge(23, 9).
edge(23, 26).
edge(23, 38).
edge(23, 43).
edge(23, 51).
edge(23, 59).
edge(23, 65).
edge(23, 68).
edge(23, 71).
edge(23, 74).
edge(23, 75).
edge(23, 2).
edge(23, 42).
edge(23, 14).
edge(23, 86).
edge(23, 41).
edge(23, 20).
edge(24, 47).
edge(24, 70).
edge(24, 69).
edge(24, 4).
edge(24, 68).
edge(25, 60).
edge(25, 65).
edge(26, 42).
edge(26, 87).
edge(26, 62).
edge(26, 19).
edge(26, 18).
edge(26, 10).
edge(27, 8).
edge(27, 12).
edge(27, 18).
edge(27, 19).
edge(27, 33).
edge(27, 46).
edge(27, 47).
edge(27, 48).
edge(27, 82).
edge(27, 88).
edge(27, 84).
edge(27, 72).
edge(27, 73).
edge(27, 24).
edge(28, 2).
edge(28, 89).
edge(28, 53).
edge(29, 2).
edge(29, 41).
edge(29, 61).
edge(29, 67).
edge(29, 78).
edge(29, 79).
edge(29, 90).
edge(29, 24).
edge(30, 20).
edge(30, 31).
edge(30, 54).
edge(30, 58).
edge(30, 62).
edge(30, 63).
edge(30, 64).
edge(30, 72).
edge(30, 73).
edge(30, 78).
edge(30, 50).
edge(30, 85).
edge(30, 60).
edge(31, 22).
edge(31, 40).
edge(31, 11).
edge(31, 38).
edge(31, 64).
edge(32, 50).
edge(32, 19).
edge(32, 81).
edge(32, 8).
edge(32, 37).
edge(33, 38).
edge(34, 65).
edge(34, 10).
edge(34, 43).
edge(34, 54).
edge(34, 82).
edge(36, 4).
edge(38, 35).
edge(38, 76).
edge(38, 19).
edge(38, 2).
edge(38, 54).
edge(38, 63).
edge(38, 89).
edge(38, 22).
edge(38, 60).
edge(39, 38).
edge(39, 19).
edge(39, 10).
edge(39, 21).
edge(39, 17).
edge(40, 22).
edge(40, 43).
edge(40, 65).
edge(40, 3).
edge(40, 50).
edge(41, 77).
edge(41, 19).
edge(41, 52).
edge(41, 67).
edge(41, 53).
edge(42, 43).
edge(42, 50).
edge(43, 54).
edge(43, 60).
edge(44, 43).
edge(44, 65).
edge(44, 60).
edge(44, 82).
edge(44, 10).
edge(44, 42).
edge(45, 15).
edge(45, 24).
edge(45, 25).
edge(45, 34).
edge(45, 44).
edge(45, 49).
edge(45, 57).
edge(45, 81).
edge(45, 85).
edge(46, 54).
edge(46, 73).
edge(46, 19).
edge(46, 36).
edge(47, 62).
edge(47, 40).
edge(47, 63).
edge(47, 34).
edge(48, 32).
edge(48, 57).
edge(48, 10).
edge(49, 17).
edge(49, 50).
edge(49, 11).
edge(49, 18).
edge(49, 60).
edge(49, 78).
edge(51, 76).
edge(51, 46).
edge(51, 20).
edge(52, 81).
edge(52, 25).
edge(52, 38).
edge(52, 10).
edge(54, 10).
edge(55, 37).
edge(55, 60).
edge(55, 2).
edge(55, 54).
edge(56, 37).
edge(56, 78).
edge(56, 39).
edge(56, 34).
edge(57, 38).
edge(57, 78).
edge(57, 65).
edge(57, 55).
edge(57, 32).
edge(57, 68).
edge(57, 44).
edge(58, 43).
edge(58, 28).
edge(58, 2).
edge(58, 18).
edge(58, 70).
edge(59, 86).
edge(61, 44).
edge(62, 87).
edge(62, 3).
edge(62, 35).
edge(62, 18).
edge(63, 54).
edge(63, 22).
edge(63, 69).
edge(63, 76).
edge(63, 10).
edge(64, 47).
edge(64, 22).
edge(64, 17).
edge(64, 53).
edge(64, 62).
edge(65, 72).
edge(65, 82).
edge(66, 1).
edge(66, 21).
edge(66, 28).
edge(66, 55).
edge(66, 70).
edge(66, 76).
edge(66, 84).
edge(66, 40).
edge(66, 43).
edge(66, 20).
edge(66, 17).
edge(67, 26).
edge(67, 90).
edge(67, 31).
edge(68, 22).
edge(68, 43).
edge(68, 78).
edge(68, 44).
edge(69, 60).
edge(69, 87).
edge(69, 77).
edge(70, 78).
edge(71, 3).
edge(71, 41).
edge(71, 60).
edge(71, 67).
edge(72, 50).
edge(72, 43).
edge(72, 60).
edge(72, 77).
edge(73, 68).
edge(73, 37).
edge(73, 34).
edge(73, 11).
edge(74, 40).
edge(75, 44).
edge(76, 18).
edge(76, 42).
edge(76, 37).
edge(76, 44).
edge(77, 60).
edge(77, 37).
edge(78, 11).
edge(78, 8).
edge(78, 87).
edge(79, 55).
edge(79, 40).
edge(79, 63).
edge(80, 36).
edge(80, 17).
edge(80, 78).
edge(81, 82).
edge(81, 77).
edge(81, 42).
edge(81, 72).
edge(81, 43).
edge(82, 42).
edge(82, 60).
edge(83, 3).
edge(83, 11).
edge(83, 36).
edge(83, 40).
edge(83, 42).
edge(83, 69).
edge(83, 82).
edge(83, 4).
edge(83, 20).
edge(83, 58).
edge(83, 6).
edge(84, 63).
edge(85, 22).
edge(85, 32).
edge(85, 60).
edge(85, 11).
edge(85, 2).
edge(85, 21).
edge(85, 8).
edge(85, 62).
edge(86, 8).
edge(86, 11).
edge(86, 55).
edge(88, 53).
edge(88, 32).
edge(88, 50).
edge(88, 37).
edge(90, 69).
edge(90, 38).
edge(90, 19).
edge(90, 58).
edge(90, 4).
edge(90, 34).
input(66).
input(5).
input(45).
input(16).
input(83).
input(23).
input(27).
input(29).
input(30).
output(35).
output(37).
output(14).
output(50).
output(53).
output(22).
output(87).
output(89).
output(60).
