vertex(1..105).
edge(1, 33).
edge(3, 34).
edge(3, 90).
edge(4, 15).
edge(4, 34).
edge(4, 13).
edge(7, 70).
edge(7, 77).
edge(7, 66).
edge(7, 29).
edge(8, 76).
edge(8, 102).
edge(8, 59).
edge(9, 51).
edge(9, 61).
edge(9, 65).
edge(9, 83).
edge(10, 43).
edge(11, 90).
edge(12, 20).
edge(12, 34).
edge(12, 54).
edge(12, 78).
edge(12, 79).
edge(12, 93).
edge(12, 23).
edge(13, 68).
edge(13, 75).
edge(13, 11).
edge(13, 51).
edge(14, 26).
edge(14, 66).
edge(14, 83).
edge(14, 89).
edge(14, 33).
edge(15, 47).
edge(18, 79).
edge(19, 88).
edge(19, 35).
edge(19, 55).
edge(19, 59).
edge(19, 60).
edge(19, 64).
edge(19, 94).
edge(19, 6).
edge(19, 17).
edge(21, 36).
edge(21, 47).
edge(22, 8).
edge(22, 24).
edge(22, 100).
edge(22, 6).
edge(22, 73).
edge(23, 24).
edge(23, 90).
edge(23, 31).
edge(23, 82).
edge(24, 91).
edge(24, 33).
edge(25, 63).
edge(25, 89).
edge(25, 16).
edge(26, 16).
edge(26, 47).
edge(26, 92).
edge(27, 48).
edge(27, 75).
edge(28, 8).
edge(28, 10).
edge(28, 93).
edge(29, 92).
edge(29, 24).
edge(29, 55).
edge(30, 5).
edge(30, 3).
edge(30, 11).
edge(30, 29).
edge(30, 33).
edge(30, 46).
edge(30, 91).
edge(31, 48).
edge(31, 13).
edge(31, 41).
edge(31, 53).
edge(32, 75).
edge(32, 100).
edge(33, 38).
edge(34, 38).
edge(34, 11).
edge(34, 20).
edge(34, 15).
edge(35, 16).
edge(35, 88).
edge(36, 10).
edge(36, 63).
edge(39, 41).
edge(39, 71).
edge(39, 73).
edge(39, 82).
edge(39, 85).
edge(39, 96).
edge(39, 104).
edge(39, 49).
edge(39, 91).
edge(41, 95).
edge(41, 57).
edge(41, 43).
edge(42, 63).
edge(43, 17).
edge(43, 67).
edge(43, 40).
edge(44, 55).
edge(45, 10).
edge(45, 15).
edge(45, 75).
edge(45, 103).
edge(46, 34).
edge(46, 24).
edge(46, 101).
edge(46, 25).
edge(46, 66).
edge(47, 75).
edge(47, 40).
edge(47, 66).
edge(49, 11).
edge(49, 105).
edge(49, 102).
edge(49, 10).
edge(49, 52).
edge(49, 1).
edge(50, 27).
edge(50, 68).
edge(51, 48).
edge(51, 33).
edge(52, 33).
edge(52, 92).
edge(53, 33).
edge(54, 70).
edge(54, 27).
edge(55, 16).
edge(55, 24).
edge(55, 33).
edge(56, 63).
edge(56, 76).
edge(56, 17).
edge(56, 44).
edge(56, 11).
edge(57, 83).
edge(58, 2).
edge(58, 13).
edge(58, 23).
edge(58, 43).
edge(59, 52).
edge(59, 16).
edge(59, 34).
edge(60, 102).
edge(60, 33).
edge(60, 50).
edge(61, 63).
edge(61, 16).
edge(62, 90).
edge(62, 79).
edge(62, 20).
edge(63, 62).
edge(64, 82).
edge(64, 101).
edge(64, 41).
edge(65, 40).
edge(65, 51).
edge(65, 55).
edge(65, 67).
edge(66, 65).
edge(67, 29).
edge(67, 33).
edge(68, 66).
edge(68, 89).
edge(68, 20).
edge(69, 16).
edge(70, 89).
edge(70, 24).
edge(71, 100).
edge(72, 43).
edge(72, 88).
edge(72, 59).
edge(72, 89).
edge(73, 54).
edge(73, 101).
edge(74, 8).
edge(74, 47).
edge(74, 71).
edge(74, 95).
edge(75, 43).
edge(75, 38).
edge(76, 88).
edge(77, 41).
edge(77, 60).
edge(78, 5).
edge(78, 51).
edge(78, 37).
edge(79, 52).
edge(79, 24).
edge(79, 65).
edge(80, 44).
edge(80, 47).
edge(80, 16).
edge(81, 27).
edge(81, 44).
edge(81, 49).
edge(81, 50).
edge(81, 56).
edge(81, 80).
edge(81, 92).
edge(81, 91).
edge(82, 67).
edge(82, 20).
edge(82, 33).
edge(82, 24).
edge(83, 20).
edge(83, 40).
edge(84, 1).
edge(84, 18).
edge(84, 25).
edge(84, 68).
edge(84, 101).
edge(84, 4).
edge(84, 44).
edge(84, 85).
edge(85, 78).
edge(85, 88).
edge(85, 79).
edge(85, 90).
edge(86, 67).
edge(86, 99).
edge(86, 3).
edge(86, 54).
edge(87, 105).
edge(87, 31).
edge(87, 52).
edge(87, 53).
edge(87, 69).
edge(87, 95).
edge(87, 2).
edge(89, 43).
edge(89, 24).
edge(89, 53).
edge(91, 53).
edge(92, 44).
edge(92, 91).
edge(93, 59).
edge(93, 41).
edge(93, 102).
edge(93, 16).
edge(93, 11).
edge(94, 5).
edge(96, 82).
edge(96, 44).
edge(96, 49).
edge(97, 57).
edge(97, 72).
edge(97, 76).
edge(97, 10).
edge(98, 4).
edge(98, 32).
edge(98, 62).
edge(98, 49).
edge(99, 82).
edge(99, 34).
edge(100, 37).
edge(100, 52).
edge(100, 68).
edge(100, 20).
edge(101, 37).
edge(103, 102).
edge(103, 15).
edge(104, 6).
edge(104, 33).
input(7).
input(9).
input(12).
input(14).
input(19).
input(21).
input(22).
input(28).
input(30).
input(39).
input(42).
input(45).
input(58).
input(74).
input(81).
input(84).
input(86).
input(87).
input(97).
input(98).
output(2).
output(5).
output(102).
output(6).
output(38).
output(37).
output(40).
output(105).
output(48).
output(17).
output(16).
output(20).
output(88).
output(90).
output(95).