vertex(1..105).
edge(1, 85).
edge(1, 83).
edge(1, 30).
edge(2, 85).
edge(2, 7).
edge(2, 41).
edge(2, 83).
edge(2, 101).
edge(3, 37).
edge(3, 44).
edge(3, 92).
edge(3, 27).
edge(3, 61).
edge(3, 74).
edge(4, 76).
edge(4, 13).
edge(4, 30).
edge(4, 91).
edge(4, 80).
edge(5, 9).
edge(5, 10).
edge(5, 67).
edge(5, 74).
edge(5, 79).
edge(5, 16).
edge(5, 61).
edge(8, 23).
edge(8, 41).
edge(9, 1).
edge(9, 101).
edge(10, 47).
edge(10, 90).
edge(10, 37).
edge(10, 95).
edge(10, 19).
edge(11, 7).
edge(11, 9).
edge(11, 68).
edge(11, 17).
edge(11, 27).
edge(11, 96).
edge(12, 2).
edge(13, 70).
edge(13, 98).
edge(13, 32).
edge(13, 84).
edge(13, 27).
edge(14, 84).
edge(14, 4).
edge(14, 83).
edge(14, 51).
edge(14, 103).
edge(15, 47).
edge(16, 41).
edge(16, 73).
edge(17, 7).
edge(18, 40).
edge(18, 16).
edge(18, 83).
edge(18, 101).
edge(18, 46).
edge(18, 73).
edge(19, 80).
edge(19, 20).
edge(19, 33).
edge(19, 73).
edge(21, 13).
edge(21, 6).
edge(21, 87).
edge(21, 61).
edge(22, 75).
edge(22, 13).
edge(22, 3).
edge(22, 33).
edge(22, 12).
edge(22, 41).
edge(23, 18).
edge(23, 83).
edge(23, 2).
edge(24, 30).
edge(24, 70).
edge(24, 94).
edge(25, 22).
edge(26, 24).
edge(26, 53).
edge(26, 62).
edge(26, 101).
edge(27, 30).
edge(27, 87).
edge(27, 60).
edge(27, 41).
edge(27, 84).
edge(27, 51).
edge(28, 1).
edge(28, 13).
edge(28, 45).
edge(28, 83).
edge(28, 87).
edge(28, 89).
edge(29, 25).
edge(29, 76).
edge(29, 79).
edge(30, 7).
edge(30, 60).
edge(30, 96).
edge(30, 23).
edge(30, 85).
edge(30, 40).
edge(31, 8).
edge(31, 16).
edge(31, 32).
edge(31, 54).
edge(31, 84).
edge(31, 9).
edge(31, 87).
edge(31, 102).
edge(31, 18).
edge(32, 101).
edge(32, 73).
edge(33, 91).
edge(33, 43).
edge(34, 92).
edge(34, 27).
edge(34, 84).
edge(34, 17).
edge(35, 70).
edge(35, 12).
edge(35, 60).
edge(35, 43).
edge(35, 50).
edge(36, 75).
edge(36, 73).
edge(36, 87).
edge(38, 12).
edge(38, 17).
edge(38, 56).
edge(38, 102).
edge(38, 99).
edge(38, 19).
edge(38, 74).
edge(38, 75).
edge(40, 16).
edge(40, 32).
edge(40, 41).
edge(40, 73).
edge(41, 83).
edge(41, 73).
edge(41, 101).
edge(42, 77).
edge(42, 98).
edge(42, 95).
edge(42, 102).
edge(44, 51).
edge(44, 61).
edge(44, 68).
edge(44, 18).
edge(44, 83).
edge(44, 96).
edge(44, 92).
edge(45, 60).
edge(45, 8).
edge(45, 30).
edge(45, 92).
edge(45, 84).
edge(45, 87).
edge(45, 2).
edge(46, 32).
edge(46, 41).
edge(46, 73).
edge(46, 96).
edge(47, 34).
edge(47, 44).
edge(47, 30).
edge(47, 74).
edge(48, 33).
edge(48, 55).
edge(48, 97).
edge(48, 89).
edge(48, 47).
edge(49, 103).
edge(49, 30).
edge(49, 99).
edge(50, 33).
edge(50, 20).
edge(50, 12).
edge(52, 35).
edge(52, 40).
edge(52, 46).
edge(52, 68).
edge(53, 1).
edge(53, 92).
edge(53, 76).
edge(54, 102).
edge(54, 86).
edge(55, 6).
edge(55, 4).
edge(55, 49).
edge(55, 98).
edge(56, 1).
edge(56, 82).
edge(56, 79).
edge(56, 51).
edge(56, 41).
edge(57, 20).
edge(57, 98).
edge(57, 76).
edge(57, 39).
edge(57, 80).
edge(58, 18).
edge(58, 49).
edge(58, 74).
edge(59, 71).
edge(59, 99).
edge(59, 100).
edge(59, 15).
edge(59, 20).
edge(61, 30).
edge(61, 12).
edge(61, 73).
edge(61, 87).
edge(62, 94).
edge(62, 30).
edge(62, 41).
edge(62, 70).
edge(62, 87).
edge(63, 71).
edge(63, 72).
edge(63, 34).
edge(63, 96).
edge(63, 37).
edge(63, 73).
edge(63, 40).
edge(64, 39).
edge(64, 53).
edge(64, 96).
edge(65, 2).
edge(65, 27).
edge(65, 77).
edge(65, 4).
edge(65, 57).
edge(66, 4).
edge(66, 15).
edge(66, 30).
edge(66, 41).
edge(66, 42).
edge(66, 50).
edge(66, 79).
edge(66, 94).
edge(66, 14).
edge(66, 21).
edge(66, 77).
edge(67, 96).
edge(67, 54).
edge(67, 44).
edge(67, 86).
edge(67, 2).
edge(67, 37).
edge(68, 60).
edge(68, 46).
edge(68, 87).
edge(68, 96).
edge(68, 7).
edge(69, 11).
edge(69, 14).
edge(69, 47).
edge(69, 63).
edge(69, 64).
edge(69, 72).
edge(69, 86).
edge(69, 45).
edge(69, 50).
edge(69, 19).
edge(69, 3).
edge(71, 46).
edge(71, 83).
edge(72, 75).
edge(72, 94).
edge(72, 1).
edge(74, 84).
edge(74, 40).
edge(74, 45).
edge(75, 68).
edge(75, 40).
edge(75, 27).
edge(75, 12).
edge(76, 91).
edge(76, 45).
edge(76, 23).
edge(76, 32).
edge(76, 1).
edge(77, 74).
edge(78, 19).
edge(78, 34).
edge(78, 44).
edge(78, 88).
edge(78, 90).
edge(78, 98).
edge(78, 40).
edge(78, 8).
edge(79, 34).
edge(80, 40).
edge(80, 30).
edge(81, 21).
edge(81, 57).
edge(81, 61).
edge(81, 80).
edge(81, 82).
edge(81, 103).
edge(81, 17).
edge(81, 83).
edge(82, 16).
edge(82, 13).
edge(83, 87).
edge(84, 12).
edge(84, 68).
edge(84, 96).
edge(84, 51).
edge(85, 46).
edge(85, 32).
edge(85, 87).
edge(85, 40).
edge(86, 43).
edge(86, 16).
edge(86, 98).
edge(87, 73).
edge(87, 96).
edge(88, 89).
edge(88, 23).
edge(88, 73).
edge(88, 8).
edge(89, 17).
edge(89, 92).
edge(89, 98).
edge(89, 85).
edge(89, 6).
edge(89, 41).
edge(90, 3).
edge(90, 77).
edge(90, 30).
edge(90, 98).
edge(90, 40).
edge(90, 91).
edge(93, 43).
edge(93, 57).
edge(93, 75).
edge(93, 35).
edge(93, 47).
edge(94, 6).
edge(94, 17).
edge(95, 7).
edge(95, 89).
edge(95, 22).
edge(97, 6).
edge(97, 47).
edge(97, 39).
edge(97, 11).
edge(97, 75).
edge(98, 68).
edge(99, 23).
edge(99, 80).
edge(99, 63).
edge(99, 68).
edge(99, 32).
edge(100, 18).
edge(100, 21).
edge(100, 70).
edge(100, 13).
edge(100, 91).
edge(101, 87).
edge(101, 73).
edge(102, 51).
edge(103, 43).
edge(103, 85).
edge(103, 40).
edge(103, 18).
edge(103, 45).
edge(103, 13).
edge(103, 77).
edge(103, 61).
edge(103, 60).
edge(103, 27).
edge(104, 3).
edge(104, 22).
edge(104, 23).
edge(104, 85).
edge(104, 95).
edge(104, 101).
edge(104, 105).
edge(104, 54).
edge(104, 49).
edge(104, 16).
edge(105, 12).
edge(105, 89).
input(65).
input(66).
input(36).
input(69).
input(38).
input(5).
input(104).
input(78).
input(48).
input(81).
input(93).
input(52).
input(26).
input(59).
input(28).
input(29).
input(31).
input(58).
output(37).
output(70).
output(6).
output(7).
output(39).
output(73).
output(43).
output(60).
output(51).
output(20).
output(91).
output(92).
output(96).
