vertex(1..95).
edge(1, 7).
edge(1, 72).
edge(1, 85).
edge(1, 93).
edge(2, 5).
edge(2, 55).
edge(2, 30).
edge(2, 69).
edge(3, 95).
edge(3, 28).
edge(3, 64).
edge(4, 29).
edge(4, 53).
edge(5, 57).
edge(5, 86).
edge(6, 59).
edge(6, 47).
edge(6, 83).
edge(7, 45).
edge(7, 14).
edge(7, 31).
edge(7, 50).
edge(7, 18).
edge(7, 38).
edge(7, 67).
edge(8, 37).
edge(8, 66).
edge(8, 94).
edge(8, 18).
edge(8, 65).
edge(8, 84).
edge(9, 78).
edge(9, 28).
edge(9, 12).
edge(9, 88).
edge(10, 12).
edge(11, 89).
edge(11, 85).
edge(12, 38).
edge(12, 65).
edge(12, 53).
edge(13, 33).
edge(13, 60).
edge(13, 64).
edge(13, 29).
edge(13, 27).
edge(14, 72).
edge(14, 33).
edge(15, 10).
edge(15, 29).
edge(15, 40).
edge(15, 64).
edge(15, 3).
edge(15, 47).
edge(16, 35).
edge(16, 8).
edge(16, 11).
edge(16, 27).
edge(16, 59).
edge(16, 45).
edge(16, 46).
edge(16, 5).
edge(16, 86).
edge(17, 36).
edge(17, 46).
edge(17, 63).
edge(17, 41).
edge(17, 81).
edge(17, 86).
edge(17, 47).
edge(18, 5).
edge(18, 61).
edge(18, 68).
edge(19, 84).
edge(20, 49).
edge(20, 69).
edge(20, 42).
edge(20, 78).
edge(20, 22).
edge(20, 48).
edge(21, 40).
edge(21, 53).
edge(21, 22).
edge(22, 65).
edge(22, 38).
edge(23, 31).
edge(23, 79).
edge(23, 81).
edge(23, 94).
edge(23, 64).
edge(23, 53).
edge(24, 33).
edge(24, 66).
edge(24, 80).
edge(24, 90).
edge(24, 27).
edge(24, 65).
edge(24, 93).
edge(25, 54).
edge(25, 82).
edge(25, 49).
edge(25, 53).
edge(25, 9).
edge(26, 3).
edge(26, 43).
edge(26, 48).
edge(26, 33).
edge(26, 11).
edge(26, 30).
edge(27, 85).
edge(27, 88).
edge(28, 65).
edge(28, 56).
edge(28, 41).
edge(28, 95).
edge(28, 93).
edge(29, 64).
edge(29, 68).
edge(30, 87).
edge(31, 78).
edge(33, 53).
edge(33, 38).
edge(34, 78).
edge(34, 88).
edge(34, 95).
edge(34, 49).
edge(34, 33).
edge(36, 75).
edge(36, 66).
edge(38, 71).
edge(38, 40).
edge(39, 5).
edge(39, 13).
edge(39, 14).
edge(39, 19).
edge(39, 41).
edge(39, 50).
edge(39, 71).
edge(39, 63).
edge(40, 55).
edge(40, 56).
edge(41, 68).
edge(41, 83).
edge(41, 42).
edge(41, 67).
edge(42, 40).
edge(42, 5).
edge(42, 29).
edge(43, 38).
edge(43, 47).
edge(43, 32).
edge(44, 38).
edge(44, 21).
edge(44, 71).
edge(44, 69).
edge(46, 83).
edge(46, 52).
edge(47, 83).
edge(47, 53).
edge(48, 57).
edge(48, 52).
edge(48, 42).
edge(48, 19).
edge(49, 50).
edge(49, 18).
edge(49, 54).
edge(49, 3).
edge(50, 29).
edge(50, 86).
edge(51, 52).
edge(51, 53).
edge(51, 65).
edge(51, 74).
edge(51, 91).
edge(51, 29).
edge(51, 80).
edge(51, 7).
edge(52, 53).
edge(52, 79).
edge(52, 29).
edge(53, 79).
edge(53, 29).
edge(53, 64).
edge(58, 43).
edge(58, 68).
edge(58, 87).
edge(58, 95).
edge(58, 66).
edge(58, 61).
edge(59, 61).
edge(60, 52).
edge(62, 2).
edge(62, 60).
edge(62, 13).
edge(62, 12).
edge(63, 42).
edge(63, 13).
edge(63, 81).
edge(63, 74).
edge(63, 68).
edge(63, 44).
edge(64, 68).
edge(65, 88).
edge(65, 42).
edge(65, 59).
edge(65, 55).
edge(65, 32).
edge(66, 47).
edge(66, 83).
edge(66, 27).
edge(66, 52).
edge(69, 45).
edge(69, 55).
edge(70, 6).
edge(70, 9).
edge(70, 38).
edge(70, 47).
edge(70, 75).
edge(70, 86).
edge(71, 67).
edge(71, 29).
edge(71, 57).
edge(71, 83).
edge(72, 78).
edge(72, 67).
edge(72, 38).
edge(73, 4).
edge(73, 12).
edge(73, 28).
edge(73, 30).
edge(73, 42).
edge(73, 44).
edge(73, 14).
edge(73, 63).
edge(74, 29).
edge(74, 47).
edge(74, 93).
edge(74, 59).
edge(75, 69).
edge(75, 57).
edge(75, 38).
edge(75, 59).
edge(75, 53).
edge(75, 47).
edge(76, 59).
edge(76, 40).
edge(77, 21).
edge(77, 22).
edge(77, 58).
edge(77, 76).
edge(77, 84).
edge(77, 87).
edge(77, 31).
edge(78, 27).
edge(78, 67).
edge(78, 69).
edge(78, 88).
edge(79, 29).
edge(79, 64).
edge(80, 43).
edge(80, 69).
edge(80, 29).
edge(81, 22).
edge(81, 69).
edge(81, 21).
edge(82, 36).
edge(82, 60).
edge(82, 61).
edge(84, 59).
edge(84, 18).
edge(84, 72).
edge(84, 85).
edge(84, 83).
edge(84, 57).
edge(85, 86).
edge(85, 32).
edge(85, 83).
edge(86, 88).
edge(86, 79).
edge(86, 64).
edge(87, 88).
edge(87, 53).
edge(87, 69).
edge(88, 32).
edge(88, 52).
edge(88, 64).
edge(89, 18).
edge(89, 45).
edge(89, 66).
edge(89, 50).
edge(90, 56).
edge(90, 61).
edge(90, 93).
edge(90, 54).
edge(91, 64).
edge(91, 86).
edge(91, 69).
edge(91, 88).
edge(92, 18).
edge(92, 89).
edge(92, 85).
edge(92, 3).
edge(93, 95).
edge(93, 55).
edge(93, 56).
edge(94, 41).
edge(94, 78).
edge(94, 37).
edge(94, 21).
edge(95, 66).
edge(95, 56).
input(1).
input(34).
input(70).
input(39).
input(73).
input(77).
input(15).
input(16).
input(17).
input(51).
input(20).
input(23).
input(24).
input(25).
input(26).
input(92).
input(62).
output(67).
output(35).
output(37).
output(68).
output(45).
output(83).
output(54).
output(55).
output(56).
output(57).
output(61).
output(32).