vertex(1..90).
edge(1, 2).
edge(1, 3).
edge(2, 47).
edge(2, 27).
edge(2, 31).
edge(3, 52).
edge(3, 23).
edge(3, 16).
edge(5, 20).
edge(5, 39).
edge(6, 18).
edge(6, 19).
edge(6, 20).
edge(6, 26).
edge(6, 43).
edge(6, 50).
edge(6, 61).
edge(6, 22).
edge(7, 23).
edge(7, 32).
edge(7, 31).
edge(8, 11).
edge(8, 55).
edge(9, 61).
edge(9, 31).
edge(11, 18).
edge(11, 16).
edge(12, 26).
edge(12, 31).
edge(12, 23).
edge(12, 84).
edge(15, 4).
edge(15, 84).
edge(15, 16).
edge(16, 57).
edge(17, 51).
edge(17, 48).
edge(17, 78).
edge(18, 54).
edge(18, 50).
edge(18, 52).
edge(19, 70).
edge(19, 58).
edge(19, 52).
edge(20, 7).
edge(20, 54).
edge(20, 36).
edge(21, 49).
edge(21, 75).
edge(21, 28).
edge(21, 69).
edge(21, 48).
edge(22, 16).
edge(22, 27).
edge(22, 47).
edge(22, 20).
edge(23, 49).
edge(23, 32).
edge(24, 78).
edge(25, 30).
edge(25, 36).
edge(25, 47).
edge(25, 53).
edge(25, 73).
edge(25, 75).
edge(25, 39).
edge(25, 78).
edge(26, 66).
edge(26, 81).
edge(27, 14).
edge(27, 7).
edge(27, 32).
edge(28, 75).
edge(28, 13).
edge(28, 78).
edge(28, 51).
edge(29, 54).
edge(29, 14).
edge(30, 55).
edge(30, 22).
edge(30, 33).
edge(30, 70).
edge(32, 31).
edge(32, 52).
edge(34, 12).
edge(34, 77).
edge(34, 81).
edge(35, 5).
edge(35, 11).
edge(35, 17).
edge(35, 65).
edge(35, 78).
edge(35, 86).
edge(35, 24).
edge(35, 76).
edge(36, 71).
edge(36, 14).
edge(36, 10).
edge(36, 52).
edge(37, 61).
edge(37, 16).
edge(37, 50).
edge(37, 9).
edge(37, 58).
edge(38, 20).
edge(38, 51).
edge(38, 63).
edge(39, 43).
edge(41, 49).
edge(41, 57).
edge(41, 66).
edge(41, 24).
edge(42, 81).
edge(42, 77).
edge(43, 36).
edge(43, 31).
edge(44, 17).
edge(44, 50).
edge(45, 19).
edge(45, 41).
edge(46, 71).
edge(46, 50).
edge(46, 23).
edge(47, 17).
edge(47, 9).
edge(47, 24).
edge(50, 33).
edge(50, 9).
edge(51, 75).
edge(51, 58).
edge(53, 61).
edge(53, 52).
edge(53, 56).
edge(53, 50).
edge(53, 4).
edge(54, 9).
edge(54, 31).
edge(55, 13).
edge(55, 20).
edge(55, 31).
edge(56, 54).
edge(57, 13).
edge(57, 58).
edge(57, 14).
edge(58, 56).
edge(58, 61).
edge(58, 49).
edge(59, 66).
edge(59, 84).
edge(59, 40).
edge(60, 16).
edge(60, 46).
edge(60, 55).
edge(60, 61).
edge(60, 41).
edge(61, 52).
edge(61, 31).
edge(62, 8).
edge(62, 42).
edge(62, 59).
edge(62, 67).
edge(62, 76).
edge(63, 37).
edge(63, 53).
edge(63, 49).
edge(64, 21).
edge(64, 27).
edge(64, 37).
edge(64, 56).
edge(64, 53).
edge(65, 53).
edge(65, 55).
edge(65, 56).
edge(66, 48).
edge(67, 29).
edge(67, 41).
edge(67, 56).
edge(68, 38).
edge(68, 63).
edge(68, 74).
edge(68, 83).
edge(68, 32).
edge(69, 52).
edge(69, 9).
edge(69, 24).
edge(70, 77).
edge(70, 49).
edge(72, 40).
edge(72, 15).
edge(72, 28).
edge(72, 54).
edge(72, 58).
edge(72, 70).
edge(73, 80).
edge(73, 61).
edge(74, 66).
edge(74, 22).
edge(74, 52).
edge(74, 77).
edge(75, 10).
edge(75, 24).
edge(76, 14).
edge(76, 27).
edge(77, 23).
edge(78, 32).
edge(78, 61).
edge(78, 31).
edge(79, 46).
edge(79, 77).
edge(80, 9).
edge(80, 32).
edge(81, 57).
edge(81, 52).
edge(81, 29).
edge(82, 9).
edge(82, 29).
edge(82, 45).
edge(82, 53).
edge(82, 11).
edge(83, 48).
edge(83, 23).
edge(83, 17).
edge(83, 87).
edge(83, 4).
edge(85, 23).
edge(85, 41).
edge(85, 51).
edge(86, 53).
edge(86, 63).
edge(87, 27).
edge(87, 18).
edge(88, 24).
edge(88, 51).
edge(88, 57).
edge(88, 75).
edge(89, 7).
edge(89, 22).
edge(89, 39).
edge(89, 44).
edge(89, 66).
edge(89, 69).
edge(89, 32).
edge(89, 48).
edge(90, 32).
edge(90, 79).
edge(90, 80).
edge(90, 87).
edge(90, 84).
input(1).
input(34).
input(35).
input(68).
input(6).
input(72).
input(60).
input(82).
input(85).
input(88).
input(25).
input(90).
input(89).
input(62).
input(64).
output(33).
output(4).
output(71).
output(40).
output(10).
output(13).
output(14).
output(48).
output(49).
output(84).
output(52).
output(31).
