s(0..59).
c(0, 16).
c(0, 53).
c(0, 39).
c(0, 10).
c(0, 36).
c(1, 18).
c(1, 0).
c(1, 50).
c(1, 16).
c(1, 42).
c(1, 30).
c(1, 6).
c(1, 4).
c(1, 22).
c(1, 20).
c(2, 19).
c(2, 20).
c(2, 55).
c(2, 8).
c(2, 31).
c(2, 5).
c(3, 6).
c(3, 8).
c(3, 43).
c(3, 24).
c(3, 2).
c(4, 45).
c(4, 38).
c(4, 49).
c(4, 36).
c(4, 6).
c(4, 13).
c(4, 1).
c(4, 26).
c(5, 34).
c(5, 57).
c(5, 41).
c(5, 13).
c(5, 22).
c(6, 58).
c(6, 52).
c(6, 16).
c(6, 44).
c(6, 46).
c(6, 59).
c(6, 41).
c(6, 14).
c(7, 13).
c(7, 52).
c(7, 12).
c(7, 11).
c(7, 19).
c(7, 4).
c(7, 14).
c(7, 21).
c(7, 31).
c(7, 9).
c(7, 41).
c(8, 44).
c(8, 12).
c(8, 19).
c(8, 23).
c(8, 40).
c(9, 12).
c(9, 31).
c(9, 43).
c(9, 56).
c(9, 36).
c(9, 16).
c(9, 20).
c(10, 8).
c(10, 42).
c(10, 33).
c(10, 27).
c(10, 34).
c(10, 22).
c(10, 19).
c(10, 31).
c(10, 17).
c(10, 46).
c(10, 43).
c(11, 10).
c(11, 49).
c(11, 17).
c(11, 27).
c(11, 33).
c(11, 23).
c(11, 42).
c(11, 53).
c(11, 16).
c(12, 50).
c(12, 22).
c(12, 34).
c(12, 12).
c(12, 13).
c(12, 33).
c(12, 40).
c(12, 6).
c(12, 45).
c(12, 11).
c(12, 43).
c(13, 15).
c(13, 49).
c(13, 53).
c(13, 2).
c(13, 20).
c(13, 33).
c(13, 39).
c(13, 43).
c(14, 9).
c(14, 6).
c(14, 22).
c(14, 4).
c(14, 40).
c(14, 46).
c(14, 57).
c(14, 17).
c(14, 44).
c(15, 7).
c(15, 14).
c(15, 9).
c(15, 53).
c(15, 38).
c(15, 15).
c(15, 10).
c(15, 21).
c(15, 23).
c(16, 49).
c(16, 16).
c(16, 23).
c(16, 36).
c(16, 31).
c(16, 47).
c(16, 24).
c(17, 47).
c(17, 53).
c(17, 50).
c(17, 10).
c(17, 43).
c(17, 57).
c(18, 10).
c(18, 18).
c(18, 12).
c(18, 30).
c(18, 2).
c(18, 9).
c(18, 28).
c(18, 49).
c(18, 24).
c(18, 44).
c(18, 17).
c(19, 5).
c(19, 27).
c(19, 32).
c(19, 38).
c(19, 26).
c(19, 14).
c(19, 40).
c(19, 46).
c(20, 47).
c(20, 13).
c(20, 37).
c(20, 39).
c(20, 52).
c(20, 2).
c(21, 50).
c(21, 15).
c(21, 46).
c(21, 30).
c(21, 11).
c(21, 55).
c(22, 13).
c(22, 32).
c(22, 28).
c(22, 49).
c(22, 1).
c(22, 16).
c(22, 36).
c(23, 19).
c(23, 51).
c(23, 33).
c(23, 22).
c(23, 52).
c(23, 4).
c(23, 46).
c(24, 58).
c(24, 3).
c(24, 45).
c(24, 32).
c(24, 10).
c(24, 39).
c(24, 0).
c(24, 28).
c(24, 31).
c(24, 12).
c(25, 38).
c(25, 57).
c(25, 25).
c(25, 40).
c(25, 16).
c(25, 11).
c(25, 55).
c(26, 3).
c(26, 17).
c(26, 34).
c(26, 43).
c(26, 22).
c(26, 29).
c(26, 4).
c(26, 5).
c(26, 54).
c(26, 24).
c(27, 38).
c(27, 33).
c(27, 55).
c(27, 6).
c(27, 16).
c(27, 41).
c(27, 28).
c(27, 14).
c(27, 54).
c(27, 40).
c(27, 8).
c(28, 50).
c(28, 43).
c(28, 52).
c(28, 26).
c(28, 11).
c(28, 5).
c(29, 51).
c(29, 26).
c(29, 31).
c(29, 17).
c(29, 50).
c(29, 25).
c(29, 44).
c(29, 38).
c(29, 16).
c(30, 7).
c(30, 22).
c(30, 16).
c(30, 54).
c(30, 48).
c(30, 59).
c(30, 11).
c(30, 8).
c(30, 58).
c(30, 32).
c(30, 27).
c(31, 1).
c(31, 2).
c(31, 42).
c(31, 4).
c(31, 56).
c(31, 9).
c(31, 20).
c(32, 58).
c(32, 13).
c(32, 20).
c(32, 12).
c(32, 16).
c(32, 37).
c(33, 52).
c(33, 55).
c(33, 31).
c(33, 26).
c(33, 39).
c(33, 18).
c(33, 23).
c(33, 35).
c(33, 0).
c(33, 54).
c(33, 22).
c(34, 30).
c(34, 58).
c(34, 12).
c(34, 46).
c(34, 13).
c(35, 31).
c(35, 0).
c(35, 3).
c(35, 46).
c(35, 25).
c(35, 33).
c(35, 18).
c(35, 50).
c(35, 20).
c(35, 45).
c(36, 11).
c(36, 52).
c(36, 36).
c(36, 13).
c(36, 59).
c(36, 44).
c(36, 29).
c(36, 19).
c(36, 3).
c(36, 22).
c(36, 27).
c(36, 17).
c(37, 16).
c(37, 51).
c(37, 18).
c(37, 10).
c(37, 53).
c(37, 7).
c(37, 13).
c(37, 22).
c(37, 36).
c(37, 40).
c(37, 5).
c(37, 23).
c(38, 56).
c(38, 8).
c(38, 23).
c(38, 13).
c(38, 4).
c(38, 44).
c(38, 15).
c(39, 8).
c(39, 19).
c(39, 7).
c(39, 58).
c(39, 1).
c(39, 10).
c(39, 50).
c(40, 51).
c(40, 36).
c(40, 53).
c(40, 43).
c(40, 4).
c(40, 44).
c(40, 6).
c(40, 57).
c(41, 32).
c(41, 47).
c(41, 1).
c(41, 3).
c(41, 45).
c(41, 14).
c(41, 17).
c(41, 4).
c(41, 9).
c(42, 10).
c(42, 56).
c(42, 35).
c(42, 30).
c(42, 5).
c(42, 9).
c(42, 45).
c(42, 3).
c(43, 15).
c(43, 10).
c(43, 32).
c(43, 29).
c(43, 23).
c(43, 53).
c(43, 39).
c(43, 24).
c(43, 18).
c(43, 46).
c(43, 1).
c(43, 48).
c(44, 16).
c(44, 44).
c(44, 5).
c(44, 31).
c(44, 3).
c(44, 33).
c(44, 18).
c(44, 17).
c(44, 1).
c(44, 51).
c(44, 50).
c(44, 36).
c(45, 32).
c(45, 38).
c(45, 40).
c(45, 58).
c(45, 5).
c(45, 1).
c(45, 27).
c(45, 45).
c(45, 26).
c(45, 50).
c(45, 39).
c(45, 37).
c(46, 33).
c(46, 22).
c(46, 9).
c(46, 49).
c(46, 50).
c(46, 14).
c(46, 31).
c(46, 34).
c(47, 46).
c(47, 42).
c(47, 52).
c(47, 37).
c(47, 32).
c(47, 14).
c(48, 21).
c(48, 20).
c(48, 25).
c(48, 30).
c(48, 15).
c(49, 10).
c(49, 27).
c(49, 53).
c(49, 36).
c(49, 44).
c(49, 0).
c(49, 6).
c(49, 12).
c(50, 25).
c(50, 31).
c(50, 28).
c(50, 37).
c(50, 8).
c(50, 41).
c(50, 49).
c(50, 54).
c(51, 36).
c(51, 16).
c(51, 12).
c(51, 39).
c(51, 38).
c(51, 11).
c(51, 29).
c(51, 43).
c(51, 23).
c(51, 32).
c(51, 40).
c(51, 50).
c(52, 27).
c(52, 21).
c(52, 14).
c(52, 49).
c(52, 12).
c(52, 35).
c(52, 47).
c(52, 34).
c(52, 20).
c(52, 7).
c(52, 30).
c(53, 0).
c(53, 55).
c(53, 34).
c(53, 3).
c(53, 26).
c(53, 23).
c(53, 59).
c(53, 56).
c(53, 14).
c(53, 57).
c(54, 14).
c(54, 33).
c(54, 46).
c(54, 5).
c(54, 38).
c(54, 6).
c(54, 24).
c(54, 31).
c(54, 1).
c(54, 28).
c(54, 42).
c(54, 22).
c(55, 58).
c(55, 50).
c(55, 47).
c(55, 39).
c(55, 25).
c(55, 36).
c(55, 38).
c(55, 30).
c(56, 41).
c(56, 6).
c(56, 28).
c(56, 3).
c(56, 44).
c(56, 29).
c(56, 14).
c(56, 52).
c(56, 35).
c(56, 25).
c(56, 39).
c(56, 20).
c(57, 24).
c(57, 41).
c(57, 52).
c(57, 11).
c(57, 43).
c(57, 29).
c(57, 34).
c(57, 57).
c(57, 40).
c(58, 22).
c(58, 13).
c(58, 52).
c(58, 42).
c(58, 56).
c(58, 54).
c(58, 39).
c(58, 7).
c(58, 17).
c(58, 15).
c(58, 14).
c(59, 48).
c(59, 46).
c(59, 16).
c(59, 14).
c(59, 33).
c(59, 35).
c(59, 29).
c(59, 28).
c(59, 45).
c(59, 26).
c(60, 41).
c(60, 29).
c(60, 1).
c(60, 27).
c(60, 4).
c(60, 46).
c(60, 5).
c(61, 4).
c(61, 56).
c(61, 16).
c(61, 9).
c(61, 27).
c(61, 29).
c(62, 42).
c(62, 16).
c(62, 10).
c(62, 21).
c(62, 41).
c(62, 5).
c(62, 35).
c(62, 15).
c(62, 34).
c(63, 13).
c(63, 50).
c(63, 36).
c(63, 39).
c(63, 29).
c(63, 58).
c(63, 26).
c(63, 30).
c(64, 42).
c(64, 45).
c(64, 58).
c(64, 1).
c(64, 54).
c(64, 53).
c(64, 27).
c(64, 0).
c(64, 34).
c(65, 0).
c(65, 54).
c(65, 45).
c(65, 30).
c(65, 40).
c(65, 46).
c(65, 50).
c(65, 35).
c(66, 32).
c(66, 28).
c(66, 56).
c(66, 58).
c(66, 49).
c(66, 25).
c(66, 50).
c(66, 42).
c(66, 17).
c(66, 43).
c(67, 11).
c(67, 57).
c(67, 39).
c(67, 51).
c(67, 22).
c(67, 24).
c(67, 23).
c(67, 21).
c(67, 6).
c(68, 17).
c(68, 6).
c(68, 34).
c(68, 13).
c(68, 37).
c(68, 47).
c(68, 19).
c(68, 48).
c(68, 7).
c(68, 39).
c(68, 51).
c(69, 44).
c(69, 35).
c(69, 59).
c(69, 50).
c(69, 49).
c(70, 23).
c(70, 8).
c(70, 17).
c(70, 1).
c(70, 33).
c(70, 47).
c(70, 11).
c(70, 12).
c(71, 49).
c(71, 8).
c(71, 56).
c(71, 35).
c(71, 43).
c(71, 0).
c(71, 37).
c(71, 59).
c(72, 25).
c(72, 27).
c(72, 13).
c(72, 34).
c(72, 30).
c(72, 32).
c(72, 23).
c(72, 9).
c(72, 54).
c(72, 11).
c(73, 34).
c(73, 30).
c(73, 4).
c(73, 2).
c(73, 32).
c(73, 33).
c(73, 46).
c(73, 54).
c(74, 1).
c(74, 52).
c(74, 5).
c(74, 11).
c(74, 45).
c(74, 6).
c(74, 2).
c(74, 9).
c(74, 37).
c(75, 34).
c(75, 27).
c(75, 25).
c(75, 36).
c(75, 18).
c(75, 14).
c(75, 10).
c(75, 33).
c(75, 5).
c(76, 43).
c(76, 30).
c(76, 36).
c(76, 33).
c(76, 51).
c(76, 47).
c(76, 46).
c(76, 56).
c(77, 46).
c(77, 32).
c(77, 27).
c(77, 47).
c(77, 18).
c(77, 4).
c(78, 11).
c(78, 38).
c(78, 2).
c(78, 56).
c(78, 12).
c(78, 32).
c(78, 25).
c(78, 36).
c(78, 14).
c(78, 6).
c(78, 41).
c(79, 37).
c(79, 55).
c(79, 35).
c(79, 27).
c(79, 3).
