s(0..49).
c(0, 11).
c(0, 37).
c(0, 23).
c(0, 41).
c(0, 40).
c(0, 32).
c(1, 28).
c(1, 6).
c(1, 47).
c(1, 32).
c(1, 9).
c(1, 0).
c(1, 34).
c(1, 27).
c(1, 12).
c(1, 45).
c(2, 20).
c(2, 4).
c(2, 39).
c(2, 48).
c(2, 32).
c(2, 41).
c(2, 37).
c(2, 10).
c(2, 45).
c(2, 5).
c(2, 17).
c(3, 24).
c(3, 44).
c(3, 18).
c(3, 3).
c(3, 9).
c(3, 36).
c(3, 4).
c(4, 46).
c(4, 44).
c(4, 3).
c(4, 12).
c(4, 45).
c(4, 24).
c(4, 2).
c(4, 21).
c(4, 28).
c(4, 29).
c(5, 31).
c(5, 42).
c(5, 37).
c(5, 28).
c(5, 38).
c(5, 45).
c(5, 48).
c(5, 20).
c(6, 6).
c(6, 35).
c(6, 19).
c(6, 34).
c(6, 29).
c(6, 41).
c(6, 20).
c(6, 28).
c(7, 25).
c(7, 44).
c(7, 3).
c(7, 14).
c(7, 30).
c(7, 6).
c(7, 47).
c(7, 0).
c(8, 46).
c(8, 37).
c(8, 30).
c(8, 18).
c(8, 32).
c(8, 33).
c(9, 18).
c(9, 7).
c(9, 46).
c(9, 43).
c(9, 17).
c(9, 48).
c(10, 14).
c(10, 27).
c(10, 41).
c(10, 4).
c(10, 18).
c(10, 8).
c(10, 17).
c(11, 12).
c(11, 0).
c(11, 35).
c(11, 19).
c(11, 33).
c(11, 26).
c(11, 18).
c(12, 2).
c(12, 35).
c(12, 5).
c(12, 3).
c(12, 10).
c(12, 28).
c(12, 40).
c(12, 22).
c(12, 12).
c(13, 48).
c(13, 33).
c(13, 1).
c(13, 6).
c(13, 12).
c(13, 5).
c(13, 40).
c(13, 17).
c(13, 39).
c(14, 10).
c(14, 40).
c(14, 49).
c(14, 15).
c(14, 19).
c(14, 41).
c(14, 38).
c(14, 13).
c(14, 1).
c(15, 3).
c(15, 0).
c(15, 25).
c(15, 9).
c(15, 45).
c(15, 6).
c(16, 22).
c(16, 32).
c(16, 43).
c(16, 0).
c(16, 49).
c(16, 44).
c(17, 14).
c(17, 7).
c(17, 24).
c(17, 45).
c(17, 3).
c(17, 34).
c(17, 8).
c(17, 49).
c(17, 21).
c(17, 11).
c(18, 34).
c(18, 40).
c(18, 8).
c(18, 31).
c(18, 42).
c(18, 44).
c(18, 4).
c(18, 49).
c(18, 13).
c(18, 24).
c(18, 18).
c(19, 47).
c(19, 35).
c(19, 23).
c(19, 33).
c(19, 2).
c(19, 17).
c(19, 1).
c(20, 27).
c(20, 18).
c(20, 11).
c(20, 9).
c(20, 5).
c(20, 6).
c(20, 32).
c(20, 49).
c(20, 35).
c(21, 48).
c(21, 28).
c(21, 38).
c(21, 31).
c(21, 9).
c(21, 5).
c(21, 37).
c(21, 27).
c(22, 18).
c(22, 24).
c(22, 39).
c(22, 34).
c(22, 0).
c(22, 13).
c(22, 7).
c(22, 11).
c(22, 30).
c(22, 19).
c(22, 45).
c(23, 31).
c(23, 43).
c(23, 11).
c(23, 19).
c(23, 0).
c(23, 32).
c(24, 35).
c(24, 24).
c(24, 41).
c(24, 3).
c(24, 8).
c(24, 2).
c(24, 6).
c(24, 25).
c(24, 5).
c(24, 20).
c(25, 21).
c(25, 47).
c(25, 33).
c(25, 26).
c(25, 39).
c(25, 18).
c(26, 25).
c(26, 1).
c(26, 48).
c(26, 29).
c(26, 14).
c(26, 21).
c(26, 31).
c(26, 11).
c(26, 24).
c(27, 31).
c(27, 21).
c(27, 4).
c(27, 9).
c(27, 6).
c(27, 0).
c(27, 3).
c(27, 45).
c(27, 26).
c(27, 38).
c(28, 13).
c(28, 8).
c(28, 27).
c(28, 21).
c(28, 33).
c(28, 17).
c(28, 25).
c(29, 13).
c(29, 21).
c(29, 47).
c(29, 16).
c(29, 24).
c(29, 44).
c(29, 26).
c(30, 0).
c(30, 38).
c(30, 24).
c(30, 30).
c(30, 42).
c(30, 31).
c(30, 36).
c(30, 22).
c(31, 34).
c(31, 21).
c(31, 5).
c(31, 16).
c(31, 7).
c(31, 38).
c(31, 18).
c(31, 26).
c(31, 33).
c(31, 28).
c(32, 22).
c(32, 24).
c(32, 41).
c(32, 3).
c(32, 7).
c(32, 31).
c(32, 36).
c(32, 9).
c(33, 32).
c(33, 12).
c(33, 43).
c(33, 25).
c(33, 36).
c(33, 37).
c(33, 24).
c(33, 35).
c(34, 24).
c(34, 31).
c(34, 3).
c(34, 23).
c(34, 13).
c(34, 26).
c(34, 22).
c(34, 28).
c(34, 19).
c(34, 44).
c(35, 22).
c(35, 47).
c(35, 26).
c(35, 1).
c(35, 31).
c(35, 0).
c(36, 48).
c(36, 33).
c(36, 49).
c(36, 34).
c(36, 44).
c(36, 8).
c(36, 29).
c(36, 25).
c(36, 0).
c(36, 7).
c(36, 37).
c(37, 5).
c(37, 40).
c(37, 44).
c(37, 32).
c(37, 48).
c(37, 24).
c(37, 18).
c(37, 8).
c(37, 49).
c(37, 43).
c(37, 16).
c(38, 46).
c(38, 0).
c(38, 44).
c(38, 36).
c(38, 28).
c(38, 43).
c(38, 16).
c(38, 27).
c(38, 21).
c(38, 10).
c(39, 43).
c(39, 42).
c(39, 19).
c(39, 17).
c(39, 48).
c(39, 27).
c(39, 9).
c(39, 5).
c(40, 1).
c(40, 7).
c(40, 29).
c(40, 45).
c(40, 31).
c(40, 43).
c(40, 9).
c(41, 12).
c(41, 23).
c(41, 34).
c(41, 0).
c(41, 22).
c(41, 2).
c(41, 47).
c(42, 11).
c(42, 35).
c(42, 48).
c(42, 17).
c(42, 2).
c(42, 19).
c(42, 30).
c(43, 43).
c(43, 7).
c(43, 36).
c(43, 14).
c(43, 21).
c(43, 46).
c(43, 6).
c(43, 15).
c(43, 13).
c(43, 48).
c(44, 30).
c(44, 9).
c(44, 39).
c(44, 47).
c(44, 43).
c(44, 21).
c(45, 20).
c(45, 18).
c(45, 46).
c(45, 41).
c(45, 4).
c(45, 25).
c(45, 39).
c(46, 41).
c(46, 17).
c(46, 5).
c(46, 9).
c(46, 20).
c(46, 18).
c(46, 10).
c(46, 11).
c(46, 32).
c(46, 43).
c(47, 26).
c(47, 20).
c(47, 36).
c(47, 9).
c(47, 44).
c(47, 27).
c(47, 32).
c(47, 16).
c(47, 21).
c(48, 13).
c(48, 9).
c(48, 34).
c(48, 8).
c(48, 36).
c(48, 49).
c(48, 6).
c(48, 21).
c(48, 16).
c(48, 19).
c(49, 43).
c(49, 36).
c(49, 7).
c(49, 32).
c(49, 42).
c(49, 26).
c(49, 15).
c(49, 11).
c(50, 11).
c(50, 2).
c(50, 30).
c(50, 12).
c(50, 43).
c(50, 38).
c(51, 39).
c(51, 49).
c(51, 31).
c(51, 30).
c(51, 6).
c(51, 29).
c(51, 17).
c(52, 36).
c(52, 40).
c(52, 43).
c(52, 37).
c(52, 29).
c(52, 20).
c(52, 21).
c(52, 15).
c(52, 16).
c(53, 11).
c(53, 36).
c(53, 14).
c(53, 17).
c(53, 44).
c(53, 47).
c(53, 26).
c(53, 41).
c(53, 40).
c(53, 49).
c(54, 34).
c(54, 41).
c(54, 30).
c(54, 0).
c(54, 8).
c(54, 12).
c(54, 42).
c(54, 4).
c(54, 11).
c(54, 17).
c(54, 19).
c(55, 29).
c(55, 11).
c(55, 18).
c(55, 42).
c(55, 35).
c(55, 4).
c(55, 32).
c(55, 17).
c(55, 24).
c(55, 9).
c(55, 36).
c(56, 14).
c(56, 29).
c(56, 46).
c(56, 34).
c(56, 26).
c(56, 15).
c(56, 38).
c(56, 43).
c(56, 45).
c(56, 22).
c(56, 1).
c(57, 44).
c(57, 9).
c(57, 7).
c(57, 47).
c(57, 18).
c(57, 38).
c(57, 43).
c(58, 14).
c(58, 25).
c(58, 7).
c(58, 20).
c(58, 16).
c(58, 38).
c(58, 6).
c(58, 3).
c(58, 40).
c(58, 11).
c(59, 35).
c(59, 46).
c(59, 24).
c(59, 3).
c(59, 14).
c(59, 33).
c(59, 7).
c(59, 32).
c(59, 42).
c(60, 37).
c(60, 2).
c(60, 24).
c(60, 45).
c(60, 4).
c(60, 18).
c(60, 7).
c(60, 27).
c(60, 44).
c(60, 40).
c(60, 42).
c(61, 47).
c(61, 48).
c(61, 19).
c(61, 22).
c(61, 0).
c(61, 23).
c(61, 42).
c(61, 44).
c(62, 34).
c(62, 32).
c(62, 16).
c(62, 48).
c(62, 15).
c(62, 39).
c(62, 2).
c(62, 11).
c(63, 6).
c(63, 14).
c(63, 32).
c(63, 17).
c(63, 10).
c(63, 29).
c(63, 22).
c(64, 34).
c(64, 28).
c(64, 33).
c(64, 40).
c(64, 3).
c(64, 25).
c(64, 45).
c(64, 11).
c(64, 49).
c(65, 20).
c(65, 44).
c(65, 12).
c(65, 3).
c(65, 35).
c(65, 30).
c(65, 6).
c(66, 46).
c(66, 45).
c(66, 9).
c(66, 8).
c(66, 37).
c(66, 35).
c(66, 10).
c(66, 23).
c(67, 7).
c(67, 9).
c(67, 31).
c(67, 40).
c(67, 35).
c(67, 44).
c(67, 28).
c(67, 21).
c(67, 38).
c(67, 5).
c(67, 15).
c(68, 9).
c(68, 1).
c(68, 39).
c(68, 30).
c(68, 36).
c(68, 5).
c(68, 17).
c(69, 34).
c(69, 47).
c(69, 33).
c(69, 15).
c(69, 16).
c(69, 2).
c(69, 43).
c(69, 20).
c(69, 31).
