s(0..49).
c(0, 3).
c(0, 49).
c(0, 37).
c(0, 47).
c(0, 26).
c(0, 34).
c(0, 41).
c(0, 43).
c(1, 40).
c(1, 43).
c(1, 6).
c(1, 31).
c(1, 35).
c(1, 10).
c(2, 8).
c(2, 48).
c(2, 24).
c(2, 14).
c(2, 21).
c(2, 26).
c(2, 36).
c(2, 7).
c(2, 27).
c(2, 34).
c(2, 41).
c(3, 3).
c(3, 33).
c(3, 20).
c(3, 22).
c(3, 14).
c(3, 26).
c(3, 40).
c(4, 44).
c(4, 45).
c(4, 14).
c(4, 48).
c(4, 9).
c(4, 36).
c(4, 3).
c(4, 6).
c(5, 42).
c(5, 39).
c(5, 13).
c(5, 16).
c(5, 18).
c(5, 24).
c(5, 45).
c(5, 25).
c(5, 28).
c(6, 43).
c(6, 11).
c(6, 41).
c(6, 15).
c(6, 3).
c(6, 30).
c(6, 7).
c(6, 18).
c(6, 22).
c(6, 42).
c(7, 39).
c(7, 32).
c(7, 12).
c(7, 17).
c(7, 43).
c(7, 21).
c(7, 20).
c(8, 14).
c(8, 32).
c(8, 17).
c(8, 23).
c(8, 15).
c(8, 7).
c(8, 9).
c(8, 2).
c(8, 18).
c(8, 43).
c(9, 19).
c(9, 20).
c(9, 30).
c(9, 25).
c(9, 6).
c(9, 8).
c(9, 43).
c(9, 14).
c(9, 5).
c(9, 49).
c(10, 5).
c(10, 18).
c(10, 3).
c(10, 34).
c(10, 7).
c(10, 9).
c(10, 28).
c(10, 30).
c(11, 26).
c(11, 13).
c(11, 38).
c(11, 10).
c(11, 20).
c(11, 36).
c(11, 2).
c(11, 23).
c(11, 30).
c(11, 6).
c(11, 35).
c(12, 42).
c(12, 41).
c(12, 28).
c(12, 5).
c(12, 46).
c(12, 10).
c(12, 29).
c(12, 43).
c(12, 40).
c(12, 23).
c(12, 16).
c(13, 10).
c(13, 8).
c(13, 3).
c(13, 23).
c(13, 17).
c(13, 30).
c(14, 8).
c(14, 17).
c(14, 2).
c(14, 32).
c(14, 18).
c(14, 10).
c(14, 19).
c(14, 13).
c(14, 9).
c(14, 6).
c(15, 24).
c(15, 22).
c(15, 16).
c(15, 27).
c(15, 32).
c(15, 34).
c(16, 9).
c(16, 0).
c(16, 16).
c(16, 31).
c(16, 48).
c(16, 24).
c(16, 28).
c(16, 15).
c(16, 22).
c(17, 45).
c(17, 8).
c(17, 47).
c(17, 43).
c(17, 41).
c(17, 0).
c(17, 29).
c(17, 13).
c(17, 37).
c(17, 18).
c(17, 25).
c(18, 21).
c(18, 44).
c(18, 33).
c(18, 29).
c(18, 9).
c(18, 23).
c(19, 0).
c(19, 6).
c(19, 25).
c(19, 12).
c(19, 19).
c(19, 33).
c(19, 36).
c(19, 7).
c(20, 0).
c(20, 47).
c(20, 21).
c(20, 16).
c(20, 36).
c(20, 9).
c(20, 15).
c(20, 37).
c(20, 22).
c(20, 7).
c(20, 19).
c(21, 40).
c(21, 0).
c(21, 39).
c(21, 30).
c(21, 45).
c(21, 41).
c(21, 37).
c(21, 1).
c(21, 48).
c(21, 14).
c(22, 39).
c(22, 17).
c(22, 36).
c(22, 13).
c(22, 44).
c(22, 34).
c(23, 4).
c(23, 47).
c(23, 7).
c(23, 17).
c(23, 26).
c(23, 12).
c(23, 18).
c(23, 25).
c(23, 35).
c(24, 23).
c(24, 5).
c(24, 19).
c(24, 35).
c(24, 38).
c(24, 49).
c(24, 17).
c(24, 34).
c(24, 10).
c(25, 39).
c(25, 47).
c(25, 14).
c(25, 24).
c(25, 1).
c(25, 48).
c(25, 23).
c(25, 25).
c(25, 40).
c(25, 31).
c(26, 24).
c(26, 42).
c(26, 25).
c(26, 30).
c(26, 44).
c(26, 20).
c(27, 32).
c(27, 40).
c(27, 9).
c(27, 38).
c(27, 41).
c(27, 36).
c(27, 2).
c(27, 1).
c(27, 27).
c(27, 33).
c(27, 5).
c(28, 8).
c(28, 20).
c(28, 25).
c(28, 21).
c(28, 9).
c(28, 41).
c(28, 32).
c(28, 45).
c(28, 48).
c(29, 3).
c(29, 47).
c(29, 24).
c(29, 42).
c(29, 41).
c(29, 14).
c(29, 31).
c(29, 28).
c(29, 8).
c(29, 44).
c(30, 11).
c(30, 14).
c(30, 39).
c(30, 6).
c(30, 4).
c(30, 41).
c(30, 2).
c(30, 23).
c(30, 20).
c(30, 19).
c(30, 49).
c(31, 39).
c(31, 21).
c(31, 15).
c(31, 20).
c(31, 7).
c(31, 5).
c(32, 40).
c(32, 19).
c(32, 1).
c(32, 5).
c(32, 8).
c(32, 42).
c(32, 25).
c(33, 42).
c(33, 28).
c(33, 49).
c(33, 6).
c(33, 14).
c(33, 18).
c(33, 20).
c(33, 44).
c(33, 46).
c(34, 11).
c(34, 49).
c(34, 9).
c(34, 0).
c(34, 20).
c(34, 37).
c(34, 1).
c(34, 23).
c(34, 26).
c(35, 11).
c(35, 44).
c(35, 48).
c(35, 16).
c(35, 30).
c(35, 5).
c(35, 21).
c(35, 42).
c(36, 5).
c(36, 3).
c(36, 9).
c(36, 22).
c(36, 34).
c(36, 1).
c(36, 0).
c(36, 44).
c(36, 11).
c(36, 16).
c(37, 19).
c(37, 13).
c(37, 31).
c(37, 25).
c(37, 30).
c(37, 3).
c(37, 49).
c(38, 23).
c(38, 21).
c(38, 38).
c(38, 20).
c(38, 1).
c(38, 5).
c(38, 19).
c(38, 9).
c(38, 2).
c(38, 15).
c(39, 13).
c(39, 28).
c(39, 17).
c(39, 24).
c(39, 49).
c(39, 23).
c(39, 43).
c(39, 31).
c(39, 47).
c(39, 36).
c(40, 11).
c(40, 49).
c(40, 12).
c(40, 13).
c(40, 0).
c(40, 35).
c(40, 6).
c(41, 15).
c(41, 23).
c(41, 4).
c(41, 11).
c(41, 5).
c(41, 18).
c(41, 27).
c(41, 2).
c(41, 46).
c(41, 33).
c(41, 26).
c(42, 30).
c(42, 6).
c(42, 47).
c(42, 23).
c(42, 7).
c(42, 24).
c(42, 26).
c(42, 32).
c(42, 44).
c(42, 41).
c(42, 2).
c(43, 46).
c(43, 38).
c(43, 11).
c(43, 30).
c(43, 8).
c(43, 22).
c(43, 27).
c(43, 13).
c(43, 26).
c(44, 49).
c(44, 5).
c(44, 44).
c(44, 39).
c(44, 13).
c(44, 6).
c(45, 5).
c(45, 48).
c(45, 15).
c(45, 4).
c(45, 40).
c(45, 14).
c(45, 35).
c(46, 49).
c(46, 48).
c(46, 8).
c(46, 29).
c(46, 9).
c(46, 23).
c(47, 28).
c(47, 35).
c(47, 8).
c(47, 12).
c(47, 36).
c(47, 41).
c(48, 17).
c(48, 27).
c(48, 24).
c(48, 23).
c(48, 9).
c(48, 19).
c(48, 18).
c(48, 7).
c(48, 46).
c(48, 15).
c(49, 4).
c(49, 11).
c(49, 9).
c(49, 5).
c(49, 3).
c(49, 49).
c(49, 30).
c(49, 45).
c(49, 17).
c(49, 1).
c(50, 41).
c(50, 16).
c(50, 49).
c(50, 5).
c(50, 7).
c(50, 3).
c(50, 26).
c(50, 35).
c(50, 9).
c(50, 13).
c(50, 33).
c(51, 42).
c(51, 8).
c(51, 19).
c(51, 49).
c(51, 26).
c(51, 0).
c(52, 36).
c(52, 14).
c(52, 16).
c(52, 6).
c(52, 21).
c(52, 1).
c(52, 34).
c(52, 45).
c(52, 12).
c(52, 18).
c(52, 3).
c(53, 46).
c(53, 15).
c(53, 8).
c(53, 31).
c(53, 38).
c(53, 9).
c(54, 21).
c(54, 39).
c(54, 47).
c(54, 15).
c(54, 49).
c(54, 3).
c(54, 44).
c(54, 29).
c(54, 45).
c(54, 0).
c(54, 33).
c(55, 16).
c(55, 21).
c(55, 20).
c(55, 24).
c(55, 15).
c(55, 34).
c(55, 49).
c(55, 43).
c(56, 29).
c(56, 15).
c(56, 30).
c(56, 34).
c(56, 20).
c(56, 0).
c(57, 18).
c(57, 16).
c(57, 38).
c(57, 24).
c(57, 46).
c(57, 47).
c(57, 17).
c(57, 31).
c(57, 27).
c(57, 13).
c(57, 6).
c(58, 6).
c(58, 19).
c(58, 32).
c(58, 22).
c(58, 30).
c(58, 45).
c(58, 26).
c(59, 7).
c(59, 25).
c(59, 15).
c(59, 3).
c(59, 6).
c(59, 14).
c(59, 27).
c(59, 39).
c(59, 35).
c(59, 36).
c(59, 10).
c(60, 9).
c(60, 46).
c(60, 2).
c(60, 10).
c(60, 7).
c(60, 26).
c(60, 1).
c(60, 39).
c(60, 16).
c(61, 18).
c(61, 29).
c(61, 40).
c(61, 5).
c(61, 13).
c(61, 12).
c(61, 30).
c(61, 47).
c(61, 35).
c(62, 41).
c(62, 8).
c(62, 13).
c(62, 12).
c(62, 33).
c(62, 22).
c(62, 20).
c(62, 15).
c(62, 24).
c(62, 7).
c(63, 46).
c(63, 45).
c(63, 40).
c(63, 13).
c(63, 8).
c(63, 36).
c(63, 20).
c(63, 3).
c(64, 32).
c(64, 20).
c(64, 24).
c(64, 2).
c(64, 18).
c(64, 22).
c(64, 6).
c(64, 31).
c(64, 27).
c(65, 47).
c(65, 45).
c(65, 35).
c(65, 14).
c(65, 43).
c(65, 32).
c(65, 12).
c(65, 24).
c(65, 31).
c(66, 4).
c(66, 8).
c(66, 35).
c(66, 31).
c(66, 18).
c(66, 19).
c(66, 11).
c(67, 24).
c(67, 25).
c(67, 1).
c(67, 34).
c(67, 5).
c(67, 12).
c(67, 30).
c(67, 32).
c(67, 39).
c(67, 33).
c(67, 14).
c(68, 49).
c(68, 8).
c(68, 32).
c(68, 42).
c(68, 0).
c(68, 44).
c(68, 29).
c(68, 13).
c(68, 3).
c(68, 35).
c(68, 47).
c(69, 31).
c(69, 7).
c(69, 20).
c(69, 16).
c(69, 38).
c(69, 47).
c(69, 33).
c(69, 2).
c(69, 8).
c(69, 24).
c(69, 48).
