s(0..49).
c(0, 26).
c(0, 36).
c(0, 1).
c(0, 14).
c(0, 42).
c(0, 28).
c(0, 6).
c(0, 40).
c(0, 34).
c(0, 2).
c(1, 34).
c(1, 3).
c(1, 6).
c(1, 23).
c(1, 35).
c(1, 37).
c(1, 28).
c(1, 4).
c(1, 43).
c(2, 34).
c(2, 23).
c(2, 19).
c(2, 21).
c(2, 11).
c(2, 18).
c(2, 5).
c(2, 2).
c(2, 36).
c(2, 30).
c(2, 12).
c(3, 32).
c(3, 43).
c(3, 15).
c(3, 5).
c(3, 28).
c(3, 22).
c(3, 27).
c(3, 46).
c(3, 41).
c(3, 23).
c(4, 11).
c(4, 40).
c(4, 25).
c(4, 45).
c(4, 44).
c(4, 14).
c(4, 20).
c(4, 4).
c(5, 47).
c(5, 21).
c(5, 39).
c(5, 26).
c(5, 1).
c(5, 44).
c(5, 0).
c(5, 36).
c(5, 2).
c(5, 15).
c(5, 43).
c(6, 41).
c(6, 29).
c(6, 14).
c(6, 6).
c(6, 17).
c(6, 24).
c(6, 39).
c(7, 32).
c(7, 37).
c(7, 47).
c(7, 26).
c(7, 45).
c(7, 11).
c(7, 43).
c(7, 36).
c(7, 10).
c(8, 30).
c(8, 2).
c(8, 38).
c(8, 24).
c(8, 32).
c(8, 39).
c(8, 10).
c(8, 27).
c(8, 14).
c(8, 20).
c(9, 21).
c(9, 6).
c(9, 30).
c(9, 23).
c(9, 49).
c(9, 35).
c(10, 43).
c(10, 24).
c(10, 17).
c(10, 6).
c(10, 21).
c(10, 20).
c(11, 1).
c(11, 8).
c(11, 30).
c(11, 26).
c(11, 10).
c(11, 6).
c(11, 15).
c(11, 49).
c(11, 14).
c(11, 45).
c(12, 41).
c(12, 22).
c(12, 7).
c(12, 19).
c(12, 48).
c(12, 36).
c(13, 33).
c(13, 7).
c(13, 4).
c(13, 40).
c(13, 38).
c(13, 15).
c(13, 14).
c(14, 31).
c(14, 49).
c(14, 14).
c(14, 39).
c(14, 10).
c(14, 46).
c(14, 27).
c(14, 24).
c(14, 0).
c(14, 37).
c(15, 30).
c(15, 23).
c(15, 26).
c(15, 25).
c(15, 12).
c(15, 27).
c(15, 2).
c(16, 40).
c(16, 11).
c(16, 49).
c(16, 28).
c(16, 10).
c(16, 48).
c(16, 19).
c(16, 13).
c(16, 14).
c(16, 42).
c(16, 26).
c(17, 44).
c(17, 47).
c(17, 14).
c(17, 32).
c(17, 28).
c(17, 30).
c(17, 24).
c(17, 16).
c(17, 33).
c(17, 37).
c(18, 13).
c(18, 19).
c(18, 10).
c(18, 49).
c(18, 42).
c(18, 11).
c(19, 46).
c(19, 40).
c(19, 38).
c(19, 33).
c(19, 29).
c(19, 35).
c(19, 5).
c(19, 48).
c(19, 42).
c(19, 10).
c(19, 13).
c(20, 19).
c(20, 22).
c(20, 26).
c(20, 28).
c(20, 6).
c(20, 8).
c(20, 35).
c(20, 45).
c(21, 1).
c(21, 48).
c(21, 43).
c(21, 44).
c(21, 0).
c(21, 14).
c(21, 21).
c(21, 23).
c(21, 3).
c(21, 20).
c(22, 8).
c(22, 35).
c(22, 12).
c(22, 11).
c(22, 4).
c(22, 16).
c(23, 33).
c(23, 34).
c(23, 22).
c(23, 43).
c(23, 48).
c(23, 41).
c(23, 13).
c(23, 37).
c(23, 0).
c(23, 23).
c(23, 45).
c(24, 33).
c(24, 9).
c(24, 37).
c(24, 19).
c(24, 20).
c(24, 44).
c(24, 21).
c(24, 36).
c(24, 14).
c(24, 23).
c(25, 14).
c(25, 41).
c(25, 2).
c(25, 11).
c(25, 1).
c(25, 46).
c(25, 10).
c(25, 36).
c(26, 42).
c(26, 46).
c(26, 0).
c(26, 21).
c(26, 13).
c(26, 39).
c(26, 6).
c(26, 28).
c(27, 24).
c(27, 17).
c(27, 33).
c(27, 47).
c(27, 18).
c(27, 21).
c(27, 8).
c(28, 2).
c(28, 47).
c(28, 36).
c(28, 9).
c(28, 1).
c(28, 8).
c(28, 12).
c(28, 34).
c(28, 33).
c(29, 34).
c(29, 10).
c(29, 8).
c(29, 38).
c(29, 5).
c(29, 28).
c(30, 5).
c(30, 23).
c(30, 47).
c(30, 6).
c(30, 24).
c(30, 43).
c(30, 42).
c(31, 8).
c(31, 23).
c(31, 46).
c(31, 33).
c(31, 20).
c(31, 48).
c(31, 3).
c(31, 17).
c(31, 29).
c(31, 41).
c(31, 11).
c(32, 9).
c(32, 37).
c(32, 6).
c(32, 21).
c(32, 17).
c(32, 36).
c(32, 47).
c(33, 6).
c(33, 34).
c(33, 27).
c(33, 26).
c(33, 36).
c(33, 24).
c(33, 32).
c(33, 8).
c(33, 25).
c(33, 5).
c(33, 21).
c(34, 48).
c(34, 9).
c(34, 16).
c(34, 41).
c(34, 34).
c(34, 42).
c(34, 17).
c(34, 36).
c(34, 47).
c(34, 28).
c(35, 1).
c(35, 9).
c(35, 39).
c(35, 3).
c(35, 11).
c(35, 0).
c(35, 23).
c(35, 12).
c(35, 36).
c(35, 43).
c(36, 38).
c(36, 44).
c(36, 42).
c(36, 31).
c(36, 29).
c(36, 4).
c(37, 32).
c(37, 29).
c(37, 5).
c(37, 35).
c(37, 22).
c(37, 8).
c(38, 19).
c(38, 36).
c(38, 22).
c(38, 4).
c(38, 2).
c(38, 12).
c(39, 38).
c(39, 25).
c(39, 41).
c(39, 48).
c(39, 17).
c(39, 4).
c(40, 23).
c(40, 9).
c(40, 42).
c(40, 35).
c(40, 45).
c(40, 21).
c(40, 28).
c(40, 39).
c(41, 5).
c(41, 39).
c(41, 26).
c(41, 40).
c(41, 45).
c(41, 6).
c(41, 7).
c(41, 41).
c(41, 31).
c(41, 10).
c(42, 43).
c(42, 7).
c(42, 30).
c(42, 2).
c(42, 19).
c(42, 13).
c(42, 37).
c(43, 49).
c(43, 20).
c(43, 0).
c(43, 36).
c(43, 9).
c(43, 45).
c(44, 0).
c(44, 43).
c(44, 19).
c(44, 7).
c(44, 3).
c(44, 49).
c(44, 10).
c(44, 5).
c(44, 37).
c(45, 6).
c(45, 35).
c(45, 9).
c(45, 30).
c(45, 8).
c(45, 7).
c(45, 28).
c(45, 38).
c(45, 41).
c(45, 17).
c(46, 4).
c(46, 19).
c(46, 12).
c(46, 9).
c(46, 29).
c(46, 26).
c(47, 40).
c(47, 27).
c(47, 14).
c(47, 37).
c(47, 18).
c(47, 20).
c(47, 32).
c(47, 44).
c(47, 33).
c(47, 6).
c(48, 48).
c(48, 10).
c(48, 34).
c(48, 21).
c(48, 28).
c(48, 18).
c(48, 39).
c(48, 13).
c(48, 44).
c(49, 32).
c(49, 16).
c(49, 28).
c(49, 48).
c(49, 43).
c(49, 45).
c(49, 18).
c(49, 23).
c(49, 10).
c(50, 36).
c(50, 45).
c(50, 30).
c(50, 28).
c(50, 17).
c(50, 3).
c(50, 13).
c(50, 18).
c(50, 10).
c(51, 24).
c(51, 25).
c(51, 44).
c(51, 20).
c(51, 36).
c(51, 40).
c(51, 15).
c(51, 17).
c(51, 6).
c(51, 2).
c(52, 26).
c(52, 6).
c(52, 12).
c(52, 48).
c(52, 7).
c(52, 47).
c(52, 1).
c(52, 5).
c(52, 40).
c(52, 45).
c(52, 22).
c(53, 19).
c(53, 40).
c(53, 22).
c(53, 35).
c(53, 30).
c(53, 26).
c(54, 4).
c(54, 45).
c(54, 22).
c(54, 0).
c(54, 27).
c(54, 25).
c(54, 47).
c(55, 49).
c(55, 13).
c(55, 37).
c(55, 45).
c(55, 21).
c(55, 3).
c(55, 36).
c(55, 32).
c(55, 48).
c(56, 13).
c(56, 42).
c(56, 44).
c(56, 17).
c(56, 28).
c(56, 37).
c(56, 41).
c(56, 12).
c(57, 45).
c(57, 38).
c(57, 22).
c(57, 43).
c(57, 39).
c(57, 48).
c(57, 47).
c(58, 10).
c(58, 25).
c(58, 32).
c(58, 8).
c(58, 34).
c(58, 40).
c(58, 31).
c(59, 16).
c(59, 7).
c(59, 25).
c(59, 1).
c(59, 33).
c(59, 37).
c(59, 28).
c(59, 3).
c(60, 9).
c(60, 40).
c(60, 30).
c(60, 16).
c(60, 17).
c(60, 44).
c(60, 29).
c(60, 23).
c(60, 14).
c(60, 41).
c(60, 19).
c(61, 41).
c(61, 45).
c(61, 16).
c(61, 36).
c(61, 49).
c(61, 39).
c(61, 25).
c(61, 4).
c(61, 5).
c(61, 38).
c(62, 17).
c(62, 30).
c(62, 22).
c(62, 45).
c(62, 36).
c(62, 39).
c(63, 36).
c(63, 18).
c(63, 37).
c(63, 22).
c(63, 14).
c(63, 29).
c(63, 23).
c(63, 26).
c(63, 20).
c(63, 6).
c(63, 2).
c(64, 31).
c(64, 14).
c(64, 6).
c(64, 5).
c(64, 39).
c(64, 19).
c(64, 47).
c(64, 42).
c(65, 9).
c(65, 4).
c(65, 37).
c(65, 3).
c(65, 42).
c(65, 22).
c(65, 39).
c(65, 10).
c(66, 9).
c(66, 6).
c(66, 33).
c(66, 24).
c(66, 27).
c(66, 4).
c(66, 11).
c(66, 48).
c(66, 19).
c(67, 9).
c(67, 3).
c(67, 28).
c(67, 6).
c(67, 5).
c(67, 42).
c(67, 1).
c(67, 15).
c(67, 26).
c(67, 46).
c(68, 21).
c(68, 47).
c(68, 22).
c(68, 6).
c(68, 20).
c(68, 41).
c(69, 42).
c(69, 37).
c(69, 47).
c(69, 3).
c(69, 23).
c(69, 1).
