s(0..49).
c(0, 11).
c(0, 13).
c(0, 24).
c(0, 6).
c(0, 42).
c(0, 3).
c(0, 20).
c(0, 17).
c(1, 14).
c(1, 31).
c(1, 47).
c(1, 26).
c(1, 13).
c(1, 11).
c(1, 30).
c(1, 35).
c(1, 19).
c(2, 27).
c(2, 47).
c(2, 40).
c(2, 35).
c(2, 11).
c(2, 1).
c(2, 25).
c(3, 31).
c(3, 44).
c(3, 14).
c(3, 36).
c(3, 25).
c(3, 32).
c(3, 12).
c(4, 8).
c(4, 46).
c(4, 18).
c(4, 22).
c(4, 1).
c(4, 19).
c(5, 43).
c(5, 11).
c(5, 7).
c(5, 13).
c(5, 35).
c(5, 6).
c(5, 18).
c(5, 31).
c(5, 22).
c(6, 1).
c(6, 23).
c(6, 28).
c(6, 13).
c(6, 12).
c(6, 36).
c(6, 31).
c(6, 29).
c(6, 34).
c(7, 3).
c(7, 36).
c(7, 44).
c(7, 7).
c(7, 2).
c(7, 40).
c(7, 8).
c(7, 18).
c(8, 40).
c(8, 17).
c(8, 37).
c(8, 35).
c(8, 48).
c(8, 3).
c(9, 32).
c(9, 0).
c(9, 37).
c(9, 33).
c(9, 11).
c(10, 14).
c(10, 10).
c(10, 38).
c(10, 4).
c(10, 5).
c(11, 26).
c(11, 37).
c(11, 35).
c(11, 20).
c(11, 21).
c(12, 22).
c(12, 21).
c(12, 32).
c(12, 26).
c(12, 28).
c(12, 18).
c(12, 49).
c(12, 1).
c(12, 15).
c(12, 30).
c(13, 17).
c(13, 4).
c(13, 15).
c(13, 0).
c(13, 40).
c(14, 40).
c(14, 7).
c(14, 49).
c(14, 1).
c(14, 23).
c(14, 44).
c(14, 48).
c(14, 42).
c(14, 10).
c(14, 12).
c(15, 26).
c(15, 17).
c(15, 4).
c(15, 40).
c(15, 13).
c(15, 49).
c(15, 22).
c(15, 5).
c(15, 21).
c(15, 35).
c(16, 24).
c(16, 29).
c(16, 39).
c(16, 34).
c(16, 7).
c(17, 41).
c(17, 30).
c(17, 0).
c(17, 15).
c(17, 27).
c(18, 42).
c(18, 37).
c(18, 23).
c(18, 25).
c(18, 41).
c(18, 1).
c(18, 12).
c(19, 23).
c(19, 37).
c(19, 13).
c(19, 39).
c(19, 32).
c(20, 32).
c(20, 12).
c(20, 6).
c(20, 42).
c(20, 15).
c(20, 46).
c(20, 3).
c(21, 40).
c(21, 32).
c(21, 27).
c(21, 41).
c(21, 39).
c(21, 7).
c(21, 43).
c(22, 33).
c(22, 0).
c(22, 5).
c(22, 20).
c(22, 45).
c(22, 9).
c(22, 34).
c(22, 28).
c(22, 6).
c(23, 12).
c(23, 1).
c(23, 34).
c(23, 2).
c(23, 5).
c(23, 29).
c(24, 22).
c(24, 40).
c(24, 14).
c(24, 7).
c(24, 39).
c(24, 49).
c(25, 32).
c(25, 35).
c(25, 2).
c(25, 10).
c(25, 42).
c(25, 11).
c(25, 20).
c(26, 45).
c(26, 25).
c(26, 21).
c(26, 34).
c(26, 3).
c(26, 42).
c(26, 41).
c(26, 18).
c(26, 32).
c(26, 23).
c(27, 44).
c(27, 33).
c(27, 28).
c(27, 0).
c(27, 24).
c(27, 12).
c(27, 23).
c(27, 42).
c(28, 34).
c(28, 20).
c(28, 38).
c(28, 22).
c(28, 13).
c(28, 18).
c(28, 35).
c(28, 43).
c(28, 47).
c(29, 25).
c(29, 47).
c(29, 2).
c(29, 18).
c(29, 12).
c(29, 41).
c(29, 37).
c(29, 17).
c(29, 49).
c(29, 21).
c(30, 15).
c(30, 44).
c(30, 19).
c(30, 49).
c(30, 33).
c(30, 32).
c(30, 36).
c(30, 46).
c(31, 15).
c(31, 22).
c(31, 47).
c(31, 34).
c(31, 49).
c(32, 48).
c(32, 42).
c(32, 5).
c(32, 21).
c(32, 1).
c(32, 27).
c(32, 39).
c(32, 46).
c(32, 2).
c(32, 3).
c(33, 38).
c(33, 11).
c(33, 43).
c(33, 49).
c(33, 8).
c(33, 45).
c(33, 12).
c(33, 25).
c(34, 3).
c(34, 48).
c(34, 22).
c(34, 9).
c(34, 39).
c(34, 23).
c(34, 33).
c(34, 18).
c(34, 14).
c(35, 34).
c(35, 45).
c(35, 36).
c(35, 30).
c(35, 4).
c(35, 38).
c(35, 13).
c(35, 18).
c(35, 40).
c(35, 10).
c(36, 3).
c(36, 29).
c(36, 47).
c(36, 39).
c(36, 49).
c(36, 19).
c(37, 18).
c(37, 13).
c(37, 47).
c(37, 29).
c(37, 16).
c(38, 41).
c(38, 48).
c(38, 29).
c(38, 39).
c(38, 40).
c(38, 28).
c(38, 6).
c(38, 43).
c(38, 38).
c(39, 49).
c(39, 46).
c(39, 29).
c(39, 47).
c(39, 18).
c(39, 44).
c(40, 5).
c(40, 30).
c(40, 3).
c(40, 44).
c(40, 24).
c(40, 21).
c(40, 27).
c(41, 16).
c(41, 9).
c(41, 7).
c(41, 47).
c(41, 35).
c(41, 11).
c(41, 1).
c(41, 5).
c(41, 12).
c(42, 24).
c(42, 11).
c(42, 27).
c(42, 17).
c(42, 2).
c(43, 24).
c(43, 18).
c(43, 11).
c(43, 8).
c(43, 36).
c(43, 49).
c(43, 4).
c(43, 41).
c(44, 48).
c(44, 38).
c(44, 28).
c(44, 8).
c(44, 12).
c(44, 21).
c(44, 16).
c(44, 25).
c(45, 34).
c(45, 2).
c(45, 23).
c(45, 45).
c(45, 4).
c(45, 33).
c(45, 40).
c(45, 26).
c(45, 19).
c(45, 25).
c(46, 5).
c(46, 19).
c(46, 45).
c(46, 35).
c(46, 26).
c(46, 48).
c(46, 25).
c(47, 46).
c(47, 43).
c(47, 45).
c(47, 2).
c(47, 4).
c(48, 1).
c(48, 32).
c(48, 36).
c(48, 4).
c(48, 24).
c(48, 19).
c(48, 10).
c(48, 34).
c(49, 23).
c(49, 15).
c(49, 1).
c(49, 24).
c(49, 0).
c(49, 35).
c(49, 46).
c(49, 37).
c(50, 12).
c(50, 22).
c(50, 5).
c(50, 25).
c(50, 37).
c(50, 49).
c(51, 3).
c(51, 27).
c(51, 45).
c(51, 5).
c(51, 46).
c(51, 2).
c(52, 33).
c(52, 1).
c(52, 9).
c(52, 24).
c(52, 2).
c(52, 22).
c(52, 45).
c(52, 17).
c(52, 10).
c(53, 34).
c(53, 10).
c(53, 13).
c(53, 7).
c(53, 18).
c(53, 1).
c(53, 21).
c(54, 20).
c(54, 27).
c(54, 2).
c(54, 39).
c(54, 22).
c(54, 6).
c(54, 34).
c(54, 8).
c(54, 9).
c(55, 40).
c(55, 31).
c(55, 34).
c(55, 1).
c(55, 32).
c(56, 30).
c(56, 19).
c(56, 46).
c(56, 32).
c(56, 47).
c(56, 35).
c(56, 48).
c(56, 3).
c(56, 28).
c(56, 44).
c(57, 33).
c(57, 40).
c(57, 28).
c(57, 16).
c(57, 0).
c(57, 37).
c(58, 6).
c(58, 2).
c(58, 4).
c(58, 17).
c(58, 25).
c(58, 44).
c(58, 10).
c(58, 37).
c(58, 34).
c(59, 49).
c(59, 20).
c(59, 0).
c(59, 12).
c(59, 10).
c(60, 27).
c(60, 23).
c(60, 22).
c(60, 37).
c(60, 28).
c(60, 48).
c(60, 8).
c(60, 2).
c(60, 0).
c(60, 38).
c(61, 47).
c(61, 41).
c(61, 28).
c(61, 21).
c(61, 8).
c(61, 4).
c(61, 36).
c(61, 40).
c(61, 43).
c(62, 4).
c(62, 23).
c(62, 47).
c(62, 40).
c(62, 36).
c(63, 15).
c(63, 28).
c(63, 47).
c(63, 32).
c(63, 42).
c(64, 38).
c(64, 18).
c(64, 42).
c(64, 36).
c(64, 21).
c(64, 29).
c(64, 40).
c(64, 30).
c(64, 10).
c(65, 7).
c(65, 2).
c(65, 9).
c(65, 31).
c(65, 24).
c(65, 48).
c(66, 11).
c(66, 49).
c(66, 15).
c(66, 17).
c(66, 20).
c(66, 41).
c(66, 13).
c(66, 2).
c(67, 46).
c(67, 18).
c(67, 48).
c(67, 31).
c(67, 42).
c(67, 37).
c(67, 2).
c(67, 15).
c(67, 43).
c(67, 1).
c(68, 18).
c(68, 2).
c(68, 14).
c(68, 39).
c(68, 41).
c(68, 49).
c(68, 23).
c(68, 47).
c(68, 32).
c(68, 30).
c(69, 24).
c(69, 28).
c(69, 10).
c(69, 47).
c(69, 22).
c(69, 43).
c(69, 27).
c(69, 23).
