s(0..59).
c(0, 22).
c(0, 8).
c(0, 49).
c(0, 18).
c(0, 14).
c(0, 23).
c(0, 38).
c(0, 19).
c(0, 55).
c(0, 32).
c(1, 56).
c(1, 1).
c(1, 10).
c(1, 55).
c(1, 44).
c(1, 5).
c(1, 31).
c(1, 36).
c(1, 41).
c(1, 50).
c(2, 35).
c(2, 21).
c(2, 29).
c(2, 13).
c(2, 28).
c(2, 8).
c(2, 11).
c(2, 10).
c(3, 53).
c(3, 36).
c(3, 59).
c(3, 35).
c(3, 39).
c(3, 24).
c(3, 33).
c(3, 51).
c(3, 26).
c(3, 2).
c(3, 12).
c(3, 4).
c(4, 59).
c(4, 42).
c(4, 23).
c(4, 50).
c(4, 57).
c(4, 27).
c(4, 36).
c(4, 51).
c(5, 28).
c(5, 8).
c(5, 4).
c(5, 10).
c(5, 9).
c(5, 48).
c(5, 38).
c(6, 20).
c(6, 33).
c(6, 13).
c(6, 22).
c(6, 54).
c(6, 4).
c(6, 24).
c(7, 41).
c(7, 29).
c(7, 9).
c(7, 11).
c(7, 3).
c(7, 45).
c(7, 32).
c(7, 25).
c(8, 40).
c(8, 14).
c(8, 10).
c(8, 9).
c(8, 25).
c(8, 18).
c(8, 48).
c(8, 39).
c(8, 46).
c(8, 26).
c(8, 8).
c(9, 40).
c(9, 31).
c(9, 41).
c(9, 2).
c(9, 0).
c(9, 35).
c(9, 28).
c(9, 32).
c(9, 13).
c(9, 42).
c(9, 39).
c(9, 16).
c(10, 31).
c(10, 17).
c(10, 5).
c(10, 9).
c(10, 25).
c(10, 39).
c(10, 51).
c(11, 49).
c(11, 10).
c(11, 25).
c(11, 5).
c(11, 41).
c(11, 14).
c(11, 3).
c(12, 55).
c(12, 54).
c(12, 7).
c(12, 16).
c(12, 8).
c(12, 9).
c(12, 46).
c(12, 13).
c(12, 10).
c(12, 6).
c(12, 27).
c(13, 10).
c(13, 49).
c(13, 19).
c(13, 1).
c(13, 51).
c(13, 43).
c(13, 30).
c(13, 50).
c(13, 14).
c(13, 48).
c(13, 59).
c(14, 22).
c(14, 11).
c(14, 56).
c(14, 20).
c(14, 18).
c(14, 5).
c(14, 48).
c(14, 51).
c(14, 47).
c(14, 23).
c(15, 24).
c(15, 12).
c(15, 47).
c(15, 25).
c(15, 54).
c(15, 38).
c(15, 52).
c(15, 15).
c(15, 39).
c(15, 30).
c(15, 20).
c(15, 34).
c(16, 25).
c(16, 53).
c(16, 30).
c(16, 47).
c(16, 35).
c(16, 7).
c(16, 56).
c(16, 55).
c(16, 2).
c(16, 39).
c(16, 26).
c(16, 32).
c(17, 25).
c(17, 37).
c(17, 53).
c(17, 33).
c(17, 10).
c(17, 52).
c(17, 51).
c(17, 44).
c(17, 26).
c(18, 23).
c(18, 36).
c(18, 3).
c(18, 10).
c(18, 5).
c(18, 46).
c(18, 38).
c(18, 8).
c(18, 22).
c(18, 41).
c(18, 1).
c(18, 4).
c(19, 40).
c(19, 4).
c(19, 2).
c(19, 7).
c(19, 38).
c(19, 33).
c(19, 22).
c(19, 10).
c(19, 16).
c(19, 50).
c(19, 3).
c(19, 48).
c(20, 55).
c(20, 49).
c(20, 31).
c(20, 2).
c(20, 37).
c(20, 45).
c(20, 4).
c(20, 36).
c(21, 42).
c(21, 18).
c(21, 38).
c(21, 20).
c(21, 6).
c(21, 53).
c(21, 45).
c(22, 52).
c(22, 0).
c(22, 58).
c(22, 51).
c(22, 47).
c(22, 26).
c(22, 15).
c(23, 56).
c(23, 38).
c(23, 14).
c(23, 6).
c(23, 10).
c(23, 2).
c(23, 23).
c(23, 27).
c(23, 7).
c(23, 46).
c(23, 54).
c(23, 47).
c(24, 49).
c(24, 16).
c(24, 48).
c(24, 1).
c(24, 4).
c(24, 46).
c(24, 47).
c(24, 10).
c(24, 5).
c(24, 30).
c(25, 25).
c(25, 9).
c(25, 4).
c(25, 27).
c(25, 49).
c(25, 37).
c(25, 52).
c(26, 9).
c(26, 8).
c(26, 52).
c(26, 37).
c(26, 32).
c(26, 40).
c(26, 31).
c(26, 36).
c(27, 28).
c(27, 19).
c(27, 14).
c(27, 46).
c(27, 35).
c(27, 3).
c(27, 48).
c(27, 44).
c(27, 6).
c(27, 18).
c(27, 37).
c(27, 7).
c(28, 50).
c(28, 44).
c(28, 13).
c(28, 5).
c(28, 15).
c(28, 27).
c(28, 46).
c(28, 8).
c(28, 30).
c(28, 22).
c(28, 29).
c(29, 54).
c(29, 11).
c(29, 48).
c(29, 46).
c(29, 6).
c(29, 1).
c(29, 0).
c(29, 49).
c(29, 19).
c(29, 20).
c(30, 18).
c(30, 24).
c(30, 50).
c(30, 29).
c(30, 11).
c(30, 49).
c(30, 55).
c(30, 17).
c(30, 1).
c(31, 14).
c(31, 54).
c(31, 26).
c(31, 43).
c(31, 2).
c(31, 53).
c(31, 23).
c(31, 48).
c(31, 47).
c(31, 4).
c(31, 19).
c(32, 28).
c(32, 2).
c(32, 49).
c(32, 48).
c(32, 3).
c(32, 29).
c(32, 55).
c(32, 26).
c(32, 44).
c(32, 50).
c(33, 27).
c(33, 13).
c(33, 3).
c(33, 12).
c(33, 57).
c(33, 10).
c(33, 46).
c(33, 19).
c(33, 49).
c(33, 53).
c(33, 7).
c(34, 38).
c(34, 11).
c(34, 37).
c(34, 21).
c(34, 33).
c(34, 5).
c(34, 7).
c(34, 53).
c(35, 21).
c(35, 19).
c(35, 29).
c(35, 38).
c(35, 18).
c(35, 10).
c(35, 28).
c(36, 44).
c(36, 35).
c(36, 45).
c(36, 47).
c(36, 57).
c(36, 12).
c(36, 34).
c(36, 13).
c(36, 20).
c(37, 31).
c(37, 46).
c(37, 39).
c(37, 29).
c(37, 35).
c(37, 30).
c(37, 59).
c(37, 12).
c(37, 44).
c(38, 39).
c(38, 55).
c(38, 3).
c(38, 21).
c(38, 28).
c(38, 42).
c(38, 59).
c(38, 41).
c(39, 22).
c(39, 12).
c(39, 17).
c(39, 0).
c(39, 39).
c(39, 7).
c(39, 44).
c(39, 19).
c(39, 26).
c(39, 31).
c(39, 25).
c(39, 41).
c(40, 54).
c(40, 15).
c(40, 1).
c(40, 39).
c(40, 11).
c(40, 12).
c(40, 43).
c(40, 10).
c(40, 25).
c(41, 13).
c(41, 10).
c(41, 44).
c(41, 34).
c(41, 31).
c(41, 4).
c(41, 50).
c(41, 0).
c(41, 15).
c(41, 1).
c(41, 6).
c(41, 42).
c(42, 59).
c(42, 2).
c(42, 12).
c(42, 29).
c(42, 8).
c(42, 41).
c(42, 23).
c(42, 6).
c(42, 55).
c(42, 19).
c(42, 38).
c(42, 52).
c(43, 10).
c(43, 26).
c(43, 16).
c(43, 47).
c(43, 57).
c(43, 18).
c(43, 30).
c(43, 13).
c(43, 40).
c(43, 45).
c(43, 53).
c(44, 30).
c(44, 15).
c(44, 1).
c(44, 10).
c(44, 20).
c(44, 11).
c(44, 2).
c(44, 55).
c(44, 47).
c(44, 22).
c(44, 7).
c(45, 17).
c(45, 19).
c(45, 1).
c(45, 50).
c(45, 54).
c(45, 22).
c(45, 47).
c(45, 6).
c(45, 32).
c(46, 27).
c(46, 33).
c(46, 47).
c(46, 9).
c(46, 49).
c(46, 34).
c(46, 14).
c(47, 19).
c(47, 11).
c(47, 26).
c(47, 36).
c(47, 4).
c(47, 22).
c(47, 5).
c(47, 55).
c(47, 23).
c(47, 13).
c(47, 44).
c(47, 38).
c(48, 24).
c(48, 33).
c(48, 40).
c(48, 26).
c(48, 25).
c(48, 46).
c(48, 0).
c(48, 38).
c(48, 39).
c(48, 20).
c(48, 45).
c(48, 56).
c(49, 4).
c(49, 56).
c(49, 30).
c(49, 39).
c(49, 10).
c(49, 11).
c(49, 1).
c(49, 54).
c(49, 42).
c(50, 59).
c(50, 0).
c(50, 24).
c(50, 45).
c(50, 16).
c(50, 20).
c(50, 5).
c(50, 30).
c(50, 26).
c(50, 23).
c(50, 34).
c(51, 4).
c(51, 24).
c(51, 18).
c(51, 7).
c(51, 29).
c(51, 50).
c(51, 8).
c(52, 0).
c(52, 47).
c(52, 5).
c(52, 55).
c(52, 24).
c(52, 13).
c(52, 2).
c(53, 12).
c(53, 13).
c(53, 20).
c(53, 49).
c(53, 0).
c(53, 19).
c(53, 37).
c(53, 5).
c(53, 21).
c(53, 41).
c(54, 41).
c(54, 0).
c(54, 39).
c(54, 46).
c(54, 10).
c(54, 32).
c(54, 30).
c(54, 26).
c(55, 26).
c(55, 40).
c(55, 10).
c(55, 54).
c(55, 47).
c(55, 8).
c(55, 55).
c(55, 33).
c(55, 44).
c(55, 30).
c(55, 53).
c(55, 52).
c(56, 4).
c(56, 2).
c(56, 24).
c(56, 26).
c(56, 6).
c(56, 28).
c(56, 18).
c(56, 46).
c(56, 0).
c(56, 44).
c(56, 7).
c(57, 3).
c(57, 6).
c(57, 38).
c(57, 55).
c(57, 7).
c(57, 43).
c(57, 40).
c(57, 23).
c(57, 33).
c(58, 42).
c(58, 27).
c(58, 37).
c(58, 57).
c(58, 34).
c(58, 49).
c(58, 50).
c(58, 44).
c(58, 58).
c(58, 56).
c(58, 35).
c(59, 31).
c(59, 27).
c(59, 52).
c(59, 14).
c(59, 45).
c(59, 51).
c(59, 4).
c(59, 12).
c(59, 55).
c(59, 29).
c(59, 24).
c(60, 37).
c(60, 39).
c(60, 29).
c(60, 51).
c(60, 41).
c(60, 46).
c(60, 20).
c(60, 13).
c(61, 36).
c(61, 26).
c(61, 50).
c(61, 53).
c(61, 24).
c(61, 44).
c(61, 54).
c(61, 35).
c(61, 30).
c(61, 59).
c(62, 38).
c(62, 36).
c(62, 23).
c(62, 16).
c(62, 2).
c(62, 33).
c(62, 5).
c(63, 9).
c(63, 23).
c(63, 53).
c(63, 1).
c(63, 22).
c(63, 38).
c(63, 0).
c(63, 5).
c(63, 47).
c(64, 46).
c(64, 3).
c(64, 47).
c(64, 42).
c(64, 0).
c(64, 16).
c(64, 53).
c(65, 35).
c(65, 56).
c(65, 42).
c(65, 37).
c(65, 53).
c(65, 24).
c(65, 36).
c(65, 19).
c(65, 18).
c(65, 59).
c(66, 14).
c(66, 29).
c(66, 4).
c(66, 54).
c(66, 36).
c(66, 22).
c(66, 5).
c(67, 59).
c(67, 33).
c(67, 41).
c(67, 25).
c(67, 14).
c(67, 50).
c(67, 56).
c(67, 44).
c(68, 45).
c(68, 9).
c(68, 51).
c(68, 59).
c(68, 17).
c(68, 39).
c(68, 8).
c(69, 19).
c(69, 10).
c(69, 53).
c(69, 28).
c(69, 3).
c(69, 1).
c(69, 57).
c(69, 13).
c(69, 9).
c(70, 2).
c(70, 33).
c(70, 14).
c(70, 20).
c(70, 56).
c(70, 42).
c(70, 17).
c(70, 28).
c(70, 29).
c(71, 6).
c(71, 16).
c(71, 49).
c(71, 2).
c(71, 35).
c(71, 53).
c(71, 56).
c(71, 18).
c(72, 45).
c(72, 23).
c(72, 9).
c(72, 37).
c(72, 53).
c(72, 0).
c(72, 46).
c(72, 20).
c(72, 27).
c(72, 2).
c(73, 38).
c(73, 50).
c(73, 48).
c(73, 27).
c(73, 54).
c(73, 31).
c(73, 8).
c(73, 12).
c(73, 28).
c(74, 27).
c(74, 35).
c(74, 49).
c(74, 0).
c(74, 19).
c(74, 18).
c(74, 52).
c(74, 23).
c(74, 41).
c(74, 11).
c(75, 32).
c(75, 6).
c(75, 19).
c(75, 42).
c(75, 48).
c(75, 53).
c(75, 40).
c(75, 28).
c(75, 12).
c(75, 44).
c(76, 16).
c(76, 13).
c(76, 23).
c(76, 47).
c(76, 41).
c(76, 9).
c(76, 7).
c(76, 3).
c(76, 28).
c(76, 22).
c(76, 56).
c(77, 8).
c(77, 9).
c(77, 18).
c(77, 0).
c(77, 45).
c(77, 36).
c(77, 31).
c(77, 10).
c(77, 21).
c(77, 58).
c(77, 33).
c(78, 43).
c(78, 19).
c(78, 28).
c(78, 34).
c(78, 42).
c(78, 55).
c(78, 29).
c(78, 0).
c(79, 27).
c(79, 47).
c(79, 25).
c(79, 19).
c(79, 17).
c(79, 39).
c(79, 11).
c(79, 9).
c(79, 10).
c(79, 38).
c(79, 46).
