s(0..59).
c(0, 2).
c(0, 45).
c(0, 29).
c(0, 1).
c(0, 38).
c(0, 57).
c(0, 6).
c(0, 20).
c(1, 19).
c(1, 48).
c(1, 56).
c(1, 18).
c(1, 11).
c(1, 13).
c(1, 54).
c(1, 1).
c(1, 6).
c(1, 43).
c(2, 0).
c(2, 7).
c(2, 35).
c(2, 39).
c(2, 50).
c(2, 14).
c(2, 2).
c(2, 28).
c(2, 56).
c(2, 16).
c(2, 36).
c(2, 57).
c(3, 4).
c(3, 1).
c(3, 36).
c(3, 58).
c(3, 54).
c(3, 6).
c(3, 37).
c(4, 1).
c(4, 48).
c(4, 43).
c(4, 31).
c(4, 16).
c(4, 57).
c(4, 47).
c(4, 8).
c(4, 27).
c(4, 58).
c(4, 30).
c(4, 26).
c(5, 58).
c(5, 41).
c(5, 57).
c(5, 4).
c(5, 11).
c(5, 51).
c(5, 36).
c(5, 3).
c(6, 56).
c(6, 32).
c(6, 1).
c(6, 5).
c(6, 15).
c(6, 7).
c(6, 2).
c(6, 45).
c(6, 0).
c(6, 9).
c(7, 2).
c(7, 55).
c(7, 57).
c(7, 18).
c(7, 50).
c(7, 14).
c(7, 51).
c(7, 22).
c(7, 21).
c(8, 43).
c(8, 45).
c(8, 11).
c(8, 47).
c(8, 38).
c(8, 2).
c(8, 24).
c(8, 8).
c(8, 48).
c(8, 10).
c(8, 34).
c(9, 1).
c(9, 21).
c(9, 3).
c(9, 52).
c(9, 50).
c(9, 8).
c(9, 51).
c(9, 14).
c(9, 53).
c(9, 34).
c(9, 46).
c(9, 48).
c(10, 14).
c(10, 13).
c(10, 25).
c(10, 23).
c(10, 18).
c(10, 31).
c(10, 8).
c(10, 42).
c(10, 9).
c(10, 35).
c(10, 49).
c(11, 17).
c(11, 36).
c(11, 37).
c(11, 12).
c(11, 42).
c(11, 20).
c(11, 54).
c(11, 56).
c(11, 28).
c(12, 0).
c(12, 7).
c(12, 58).
c(12, 21).
c(12, 13).
c(12, 17).
c(12, 41).
c(12, 5).
c(12, 23).
c(12, 9).
c(12, 36).
c(12, 49).
c(13, 49).
c(13, 25).
c(13, 5).
c(13, 59).
c(13, 44).
c(13, 26).
c(13, 18).
c(13, 6).
c(14, 27).
c(14, 26).
c(14, 49).
c(14, 40).
c(14, 30).
c(14, 20).
c(14, 33).
c(14, 52).
c(14, 46).
c(14, 19).
c(14, 34).
c(15, 48).
c(15, 15).
c(15, 2).
c(15, 38).
c(15, 5).
c(15, 57).
c(15, 1).
c(15, 11).
c(15, 12).
c(15, 3).
c(15, 18).
c(16, 25).
c(16, 22).
c(16, 10).
c(16, 32).
c(16, 52).
c(16, 53).
c(16, 20).
c(16, 30).
c(16, 33).
c(16, 49).
c(17, 59).
c(17, 40).
c(17, 43).
c(17, 26).
c(17, 37).
c(17, 57).
c(17, 48).
c(17, 9).
c(18, 53).
c(18, 46).
c(18, 56).
c(18, 18).
c(18, 0).
c(18, 27).
c(18, 12).
c(18, 21).
c(18, 43).
c(18, 14).
c(18, 30).
c(18, 29).
c(19, 55).
c(19, 5).
c(19, 34).
c(19, 35).
c(19, 4).
c(19, 43).
c(19, 57).
c(20, 5).
c(20, 56).
c(20, 26).
c(20, 11).
c(20, 7).
c(20, 8).
c(20, 57).
c(20, 16).
c(20, 49).
c(20, 1).
c(20, 55).
c(20, 30).
c(21, 39).
c(21, 57).
c(21, 25).
c(21, 19).
c(21, 5).
c(21, 40).
c(21, 7).
c(21, 1).
c(21, 0).
c(22, 24).
c(22, 26).
c(22, 43).
c(22, 40).
c(22, 46).
c(22, 57).
c(22, 7).
c(22, 2).
c(22, 17).
c(23, 35).
c(23, 22).
c(23, 36).
c(23, 12).
c(23, 52).
c(23, 1).
c(23, 54).
c(23, 40).
c(23, 24).
c(23, 51).
c(24, 19).
c(24, 0).
c(24, 54).
c(24, 56).
c(24, 52).
c(24, 32).
c(24, 21).
c(24, 58).
c(24, 12).
c(24, 36).
c(24, 1).
c(24, 33).
c(25, 55).
c(25, 29).
c(25, 7).
c(25, 50).
c(25, 27).
c(25, 53).
c(25, 36).
c(25, 58).
c(25, 8).
c(26, 56).
c(26, 3).
c(26, 52).
c(26, 20).
c(26, 5).
c(26, 23).
c(26, 43).
c(26, 1).
c(26, 37).
c(26, 22).
c(26, 41).
c(27, 51).
c(27, 13).
c(27, 36).
c(27, 25).
c(27, 35).
c(27, 38).
c(27, 50).
c(27, 16).
c(27, 11).
c(27, 42).
c(28, 34).
c(28, 31).
c(28, 40).
c(28, 24).
c(28, 32).
c(28, 28).
c(28, 17).
c(28, 33).
c(28, 42).
c(28, 26).
c(28, 47).
c(29, 58).
c(29, 59).
c(29, 30).
c(29, 10).
c(29, 42).
c(29, 13).
c(29, 21).
c(29, 18).
c(30, 43).
c(30, 42).
c(30, 19).
c(30, 38).
c(30, 36).
c(30, 48).
c(30, 35).
c(30, 16).
c(30, 47).
c(30, 24).
c(30, 39).
c(31, 6).
c(31, 22).
c(31, 15).
c(31, 27).
c(31, 9).
c(31, 39).
c(31, 28).
c(31, 1).
c(31, 47).
c(32, 34).
c(32, 14).
c(32, 6).
c(32, 22).
c(32, 37).
c(32, 28).
c(32, 50).
c(32, 32).
c(33, 54).
c(33, 51).
c(33, 9).
c(33, 2).
c(33, 56).
c(33, 37).
c(33, 40).
c(34, 19).
c(34, 42).
c(34, 6).
c(34, 25).
c(34, 52).
c(34, 26).
c(34, 9).
c(34, 10).
c(34, 35).
c(34, 28).
c(34, 7).
c(34, 30).
c(35, 13).
c(35, 42).
c(35, 50).
c(35, 6).
c(35, 27).
c(35, 22).
c(35, 33).
c(35, 5).
c(35, 7).
c(36, 48).
c(36, 1).
c(36, 21).
c(36, 43).
c(36, 40).
c(36, 22).
c(36, 5).
c(36, 37).
c(36, 56).
c(36, 57).
c(37, 0).
c(37, 57).
c(37, 23).
c(37, 54).
c(37, 12).
c(37, 25).
c(37, 11).
c(37, 9).
c(38, 10).
c(38, 39).
c(38, 26).
c(38, 45).
c(38, 57).
c(38, 34).
c(38, 14).
c(38, 15).
c(38, 28).
c(38, 2).
c(38, 6).
c(39, 50).
c(39, 44).
c(39, 14).
c(39, 15).
c(39, 0).
c(39, 45).
c(39, 10).
c(39, 2).
c(39, 21).
c(39, 36).
c(39, 8).
c(39, 55).
c(40, 8).
c(40, 57).
c(40, 32).
c(40, 38).
c(40, 50).
c(40, 17).
c(40, 12).
c(40, 10).
c(40, 40).
c(40, 48).
c(40, 26).
c(41, 59).
c(41, 2).
c(41, 30).
c(41, 0).
c(41, 43).
c(41, 27).
c(41, 56).
c(41, 38).
c(41, 13).
c(41, 40).
c(41, 55).
c(41, 34).
c(42, 25).
c(42, 55).
c(42, 43).
c(42, 40).
c(42, 50).
c(42, 46).
c(42, 51).
c(42, 21).
c(42, 33).
c(42, 7).
c(43, 39).
c(43, 12).
c(43, 7).
c(43, 59).
c(43, 49).
c(43, 40).
c(43, 19).
c(43, 57).
c(43, 5).
c(43, 24).
c(43, 50).
c(44, 53).
c(44, 14).
c(44, 13).
c(44, 5).
c(44, 58).
c(44, 32).
c(44, 4).
c(44, 44).
c(45, 42).
c(45, 2).
c(45, 7).
c(45, 50).
c(45, 3).
c(45, 25).
c(45, 51).
c(45, 33).
c(45, 27).
c(45, 24).
c(46, 6).
c(46, 17).
c(46, 21).
c(46, 47).
c(46, 7).
c(46, 56).
c(46, 41).
c(46, 18).
c(46, 38).
c(46, 0).
c(46, 20).
c(46, 16).
c(47, 22).
c(47, 39).
c(47, 56).
c(47, 48).
c(47, 15).
c(47, 45).
c(47, 29).
c(47, 10).
c(47, 20).
c(47, 21).
c(47, 36).
c(48, 7).
c(48, 43).
c(48, 12).
c(48, 9).
c(48, 27).
c(48, 32).
c(48, 54).
c(49, 32).
c(49, 17).
c(49, 44).
c(49, 43).
c(49, 52).
c(49, 49).
c(49, 4).
c(49, 59).
c(49, 30).
c(49, 20).
c(49, 9).
c(49, 16).
c(50, 52).
c(50, 56).
c(50, 59).
c(50, 16).
c(50, 32).
c(50, 22).
c(50, 58).
c(51, 54).
c(51, 45).
c(51, 39).
c(51, 19).
c(51, 43).
c(51, 24).
c(51, 11).
c(51, 3).
c(51, 35).
c(51, 40).
c(51, 15).
c(52, 53).
c(52, 3).
c(52, 1).
c(52, 17).
c(52, 5).
c(52, 57).
c(52, 24).
c(52, 13).
c(52, 37).
c(52, 38).
c(52, 45).
c(52, 56).
c(53, 3).
c(53, 38).
c(53, 27).
c(53, 51).
c(53, 56).
c(53, 47).
c(53, 11).
c(53, 59).
c(54, 10).
c(54, 54).
c(54, 49).
c(54, 21).
c(54, 24).
c(54, 55).
c(54, 59).
c(54, 36).
c(55, 14).
c(55, 1).
c(55, 21).
c(55, 16).
c(55, 30).
c(55, 17).
c(55, 45).
c(55, 50).
c(55, 25).
c(56, 49).
c(56, 22).
c(56, 51).
c(56, 25).
c(56, 20).
c(56, 7).
c(56, 46).
c(57, 34).
c(57, 33).
c(57, 0).
c(57, 14).
c(57, 56).
c(57, 9).
c(57, 54).
c(57, 23).
c(58, 16).
c(58, 27).
c(58, 55).
c(58, 59).
c(58, 21).
c(58, 4).
c(58, 58).
c(58, 37).
c(58, 2).
c(58, 43).
c(58, 56).
c(59, 10).
c(59, 36).
c(59, 46).
c(59, 20).
c(59, 53).
c(59, 2).
c(59, 0).
c(60, 52).
c(60, 28).
c(60, 55).
c(60, 11).
c(60, 2).
c(60, 36).
c(60, 37).
c(60, 13).
c(60, 50).
c(61, 48).
c(61, 50).
c(61, 20).
c(61, 14).
c(61, 3).
c(61, 28).
c(61, 15).
c(62, 41).
c(62, 34).
c(62, 57).
c(62, 21).
c(62, 18).
c(62, 58).
c(62, 32).
c(62, 39).
c(62, 3).
c(62, 4).
c(62, 16).
c(62, 29).
c(63, 21).
c(63, 43).
c(63, 16).
c(63, 44).
c(63, 33).
c(63, 49).
c(63, 29).
c(63, 55).
c(63, 14).
c(63, 28).
c(63, 22).
c(64, 41).
c(64, 48).
c(64, 12).
c(64, 15).
c(64, 44).
c(64, 3).
c(64, 45).
c(64, 54).
c(64, 40).
c(65, 32).
c(65, 59).
c(65, 3).
c(65, 17).
c(65, 58).
c(65, 35).
c(65, 41).
c(65, 47).
c(65, 56).
c(65, 34).
c(66, 53).
c(66, 41).
c(66, 16).
c(66, 49).
c(66, 46).
c(66, 23).
c(66, 26).
c(66, 7).
c(66, 30).
c(66, 20).
c(67, 53).
c(67, 11).
c(67, 30).
c(67, 58).
c(67, 8).
c(67, 57).
c(67, 23).
c(67, 22).
c(67, 9).
c(67, 6).
c(68, 27).
c(68, 41).
c(68, 6).
c(68, 30).
c(68, 45).
c(68, 35).
c(68, 13).
c(69, 12).
c(69, 26).
c(69, 21).
c(69, 14).
c(69, 15).
c(69, 7).
c(69, 45).
c(69, 33).
c(69, 2).
c(70, 7).
c(70, 34).
c(70, 16).
c(70, 22).
c(70, 30).
c(70, 37).
c(70, 20).
c(70, 38).
c(70, 2).
c(70, 11).
c(71, 32).
c(71, 16).
c(71, 9).
c(71, 40).
c(71, 13).
c(71, 27).
c(71, 35).
c(71, 38).
c(72, 36).
c(72, 55).
c(72, 35).
c(72, 0).
c(72, 44).
c(72, 1).
c(72, 22).
c(72, 4).
c(72, 47).
c(72, 26).
c(72, 33).
c(72, 8).
c(73, 5).
c(73, 4).
c(73, 47).
c(73, 23).
c(73, 31).
c(73, 58).
c(73, 52).
c(73, 35).
c(73, 28).
c(73, 27).
c(73, 34).
c(74, 15).
c(74, 6).
c(74, 19).
c(74, 53).
c(74, 25).
c(74, 28).
c(74, 37).
c(74, 21).
c(74, 13).
c(74, 36).
c(74, 48).
c(74, 40).
c(75, 29).
c(75, 37).
c(75, 17).
c(75, 4).
c(75, 39).
c(75, 14).
c(75, 55).
c(75, 23).
c(75, 34).
c(75, 26).
c(75, 11).
c(76, 46).
c(76, 6).
c(76, 34).
c(76, 45).
c(76, 57).
c(76, 48).
c(76, 24).
c(76, 15).
c(76, 9).
c(76, 51).
c(76, 42).
c(76, 35).
c(77, 54).
c(77, 4).
c(77, 44).
c(77, 40).
c(77, 19).
c(77, 38).
c(77, 9).
c(77, 51).
c(77, 3).
c(77, 23).
c(77, 11).
c(77, 29).
c(78, 31).
c(78, 33).
c(78, 40).
c(78, 39).
c(78, 32).
c(78, 36).
c(78, 28).
c(78, 14).
c(78, 34).
c(78, 53).
c(78, 58).
c(78, 46).
c(79, 16).
c(79, 50).
c(79, 57).
c(79, 5).
c(79, 51).
c(79, 30).
c(79, 36).
c(79, 32).
c(79, 33).
c(79, 20).
c(79, 8).
c(79, 42).
