s(0..59).
c(0, 11).
c(0, 58).
c(0, 10).
c(0, 29).
c(0, 21).
c(0, 17).
c(0, 20).
c(0, 35).
c(0, 40).
c(0, 19).
c(1, 25).
c(1, 28).
c(1, 41).
c(1, 8).
c(1, 20).
c(1, 22).
c(1, 52).
c(1, 2).
c(1, 35).
c(1, 27).
c(1, 50).
c(1, 54).
c(2, 18).
c(2, 2).
c(2, 41).
c(2, 50).
c(2, 13).
c(2, 44).
c(2, 42).
c(3, 34).
c(3, 33).
c(3, 45).
c(3, 4).
c(3, 2).
c(3, 18).
c(3, 46).
c(3, 36).
c(3, 41).
c(3, 19).
c(4, 12).
c(4, 5).
c(4, 28).
c(4, 42).
c(4, 51).
c(4, 16).
c(4, 52).
c(4, 59).
c(4, 6).
c(4, 2).
c(4, 21).
c(5, 45).
c(5, 8).
c(5, 54).
c(5, 2).
c(5, 24).
c(6, 33).
c(6, 4).
c(6, 8).
c(6, 1).
c(6, 45).
c(6, 7).
c(6, 2).
c(6, 50).
c(6, 44).
c(6, 32).
c(7, 8).
c(7, 52).
c(7, 4).
c(7, 20).
c(7, 35).
c(7, 45).
c(7, 41).
c(7, 24).
c(7, 9).
c(7, 14).
c(8, 37).
c(8, 25).
c(8, 52).
c(8, 51).
c(8, 33).
c(8, 22).
c(8, 4).
c(8, 58).
c(8, 13).
c(8, 44).
c(9, 32).
c(9, 51).
c(9, 30).
c(9, 31).
c(9, 0).
c(9, 50).
c(9, 48).
c(9, 42).
c(9, 24).
c(9, 7).
c(9, 37).
c(9, 4).
c(10, 14).
c(10, 18).
c(10, 39).
c(10, 55).
c(10, 9).
c(10, 58).
c(10, 45).
c(10, 8).
c(10, 43).
c(10, 5).
c(10, 33).
c(11, 48).
c(11, 42).
c(11, 17).
c(11, 28).
c(11, 59).
c(11, 52).
c(11, 7).
c(11, 3).
c(11, 51).
c(11, 38).
c(11, 23).
c(12, 23).
c(12, 33).
c(12, 47).
c(12, 25).
c(12, 41).
c(12, 3).
c(12, 7).
c(12, 59).
c(12, 58).
c(12, 43).
c(13, 54).
c(13, 17).
c(13, 44).
c(13, 18).
c(13, 10).
c(13, 26).
c(14, 38).
c(14, 2).
c(14, 5).
c(14, 12).
c(14, 25).
c(15, 14).
c(15, 25).
c(15, 19).
c(15, 45).
c(15, 50).
c(15, 33).
c(15, 16).
c(15, 52).
c(16, 21).
c(16, 19).
c(16, 44).
c(16, 2).
c(16, 30).
c(17, 21).
c(17, 27).
c(17, 13).
c(17, 50).
c(17, 15).
c(17, 25).
c(17, 11).
c(17, 38).
c(17, 16).
c(17, 22).
c(17, 12).
c(18, 14).
c(18, 33).
c(18, 58).
c(18, 13).
c(18, 5).
c(18, 49).
c(18, 50).
c(18, 51).
c(18, 19).
c(18, 55).
c(18, 11).
c(19, 42).
c(19, 58).
c(19, 23).
c(19, 41).
c(19, 33).
c(19, 27).
c(19, 7).
c(19, 1).
c(19, 49).
c(20, 39).
c(20, 15).
c(20, 19).
c(20, 34).
c(20, 6).
c(20, 17).
c(20, 9).
c(20, 28).
c(20, 31).
c(20, 21).
c(21, 12).
c(21, 51).
c(21, 5).
c(21, 20).
c(21, 49).
c(21, 14).
c(21, 17).
c(21, 33).
c(22, 18).
c(22, 15).
c(22, 30).
c(22, 37).
c(22, 27).
c(22, 17).
c(22, 28).
c(22, 16).
c(22, 3).
c(22, 41).
c(23, 24).
c(23, 39).
c(23, 18).
c(23, 48).
c(23, 7).
c(23, 4).
c(23, 25).
c(23, 23).
c(23, 43).
c(23, 17).
c(23, 20).
c(23, 58).
c(24, 38).
c(24, 5).
c(24, 19).
c(24, 18).
c(24, 26).
c(24, 44).
c(24, 28).
c(25, 8).
c(25, 26).
c(25, 18).
c(25, 57).
c(25, 22).
c(25, 28).
c(25, 21).
c(25, 45).
c(26, 42).
c(26, 48).
c(26, 8).
c(26, 50).
c(26, 47).
c(26, 23).
c(26, 41).
c(26, 43).
c(26, 7).
c(26, 52).
c(26, 12).
c(27, 31).
c(27, 25).
c(27, 11).
c(27, 50).
c(27, 19).
c(27, 7).
c(27, 29).
c(28, 31).
c(28, 59).
c(28, 53).
c(28, 51).
c(28, 21).
c(29, 39).
c(29, 8).
c(29, 45).
c(29, 42).
c(29, 47).
c(30, 45).
c(30, 8).
c(30, 28).
c(30, 50).
c(30, 57).
c(30, 40).
c(30, 23).
c(30, 11).
c(31, 14).
c(31, 33).
c(31, 43).
c(31, 24).
c(31, 10).
c(31, 12).
c(31, 34).
c(31, 22).
c(31, 4).
c(31, 44).
c(31, 16).
c(32, 48).
c(32, 23).
c(32, 46).
c(32, 39).
c(32, 45).
c(32, 49).
c(32, 35).
c(32, 18).
c(32, 7).
c(33, 0).
c(33, 59).
c(33, 10).
c(33, 6).
c(33, 15).
c(33, 58).
c(33, 50).
c(34, 2).
c(34, 30).
c(34, 44).
c(34, 3).
c(34, 1).
c(34, 59).
c(34, 28).
c(34, 54).
c(35, 35).
c(35, 8).
c(35, 12).
c(35, 30).
c(35, 0).
c(35, 52).
c(35, 42).
c(35, 41).
c(35, 17).
c(35, 34).
c(35, 21).
c(35, 50).
c(36, 9).
c(36, 26).
c(36, 50).
c(36, 48).
c(36, 45).
c(36, 38).
c(36, 31).
c(37, 13).
c(37, 34).
c(37, 2).
c(37, 50).
c(37, 55).
c(37, 58).
c(37, 40).
c(37, 23).
c(38, 8).
c(38, 21).
c(38, 42).
c(38, 30).
c(38, 53).
c(38, 1).
c(38, 29).
c(38, 35).
c(38, 56).
c(38, 20).
c(38, 24).
c(38, 2).
c(39, 3).
c(39, 26).
c(39, 20).
c(39, 12).
c(39, 23).
c(39, 52).
c(39, 27).
c(40, 47).
c(40, 45).
c(40, 49).
c(40, 33).
c(40, 9).
c(40, 39).
c(40, 41).
c(40, 50).
c(41, 46).
c(41, 19).
c(41, 27).
c(41, 9).
c(41, 36).
c(41, 59).
c(41, 57).
c(41, 25).
c(42, 12).
c(42, 16).
c(42, 42).
c(42, 28).
c(42, 17).
c(42, 43).
c(42, 51).
c(43, 14).
c(43, 39).
c(43, 48).
c(43, 6).
c(43, 23).
c(43, 7).
c(43, 46).
c(44, 25).
c(44, 46).
c(44, 49).
c(44, 57).
c(44, 45).
c(44, 11).
c(44, 36).
c(44, 20).
c(44, 59).
c(44, 15).
c(44, 55).
c(45, 8).
c(45, 34).
c(45, 46).
c(45, 45).
c(45, 19).
c(45, 27).
c(45, 57).
c(45, 13).
c(45, 18).
c(45, 4).
c(46, 24).
c(46, 38).
c(46, 15).
c(46, 27).
c(46, 36).
c(46, 19).
c(47, 41).
c(47, 3).
c(47, 19).
c(47, 40).
c(47, 47).
c(48, 21).
c(48, 28).
c(48, 40).
c(48, 33).
c(48, 46).
c(48, 10).
c(48, 3).
c(48, 39).
c(48, 6).
c(48, 38).
c(49, 6).
c(49, 24).
c(49, 46).
c(49, 32).
c(49, 55).
c(49, 25).
c(49, 43).
c(49, 45).
c(49, 20).
c(49, 36).
c(49, 47).
c(50, 30).
c(50, 36).
c(50, 20).
c(50, 52).
c(50, 13).
c(50, 53).
c(50, 44).
c(51, 21).
c(51, 59).
c(51, 15).
c(51, 13).
c(51, 51).
c(51, 7).
c(52, 30).
c(52, 44).
c(52, 58).
c(52, 59).
c(52, 39).
c(52, 32).
c(52, 29).
c(52, 35).
c(52, 24).
c(53, 42).
c(53, 10).
c(53, 55).
c(53, 3).
c(53, 28).
c(53, 2).
c(53, 13).
c(54, 2).
c(54, 40).
c(54, 17).
c(54, 59).
c(54, 16).
c(54, 33).
c(55, 59).
c(55, 58).
c(55, 6).
c(55, 2).
c(55, 30).
c(55, 34).
c(55, 40).
c(56, 12).
c(56, 48).
c(56, 39).
c(56, 2).
c(56, 7).
c(56, 37).
c(56, 25).
c(56, 0).
c(56, 4).
c(56, 1).
c(56, 56).
c(56, 32).
c(57, 24).
c(57, 30).
c(57, 4).
c(57, 18).
c(57, 5).
c(57, 9).
c(57, 33).
c(57, 51).
c(58, 31).
c(58, 13).
c(58, 46).
c(58, 52).
c(58, 22).
c(58, 39).
c(58, 4).
c(58, 28).
c(58, 25).
c(59, 26).
c(59, 39).
c(59, 38).
c(59, 21).
c(59, 5).
c(60, 56).
c(60, 47).
c(60, 14).
c(60, 38).
c(60, 27).
c(61, 15).
c(61, 11).
c(61, 10).
c(61, 14).
c(61, 53).
c(61, 5).
c(61, 55).
c(61, 31).
c(61, 40).
c(62, 18).
c(62, 46).
c(62, 15).
c(62, 52).
c(62, 51).
c(62, 21).
c(62, 14).
c(62, 24).
c(63, 48).
c(63, 44).
c(63, 31).
c(63, 10).
c(63, 39).
c(63, 0).
c(63, 41).
c(63, 51).
c(63, 14).
c(63, 11).
c(63, 17).
c(63, 50).
c(64, 13).
c(64, 9).
c(64, 42).
c(64, 19).
c(64, 47).
c(64, 34).
c(64, 6).
c(64, 15).
c(64, 59).
c(64, 27).
c(64, 21).
c(65, 57).
c(65, 38).
c(65, 34).
c(65, 1).
c(65, 17).
c(65, 50).
c(65, 41).
c(65, 2).
c(65, 31).
c(65, 3).
c(66, 32).
c(66, 54).
c(66, 33).
c(66, 6).
c(66, 7).
c(66, 59).
c(66, 48).
c(66, 18).
c(66, 3).
c(66, 20).
c(67, 42).
c(67, 39).
c(67, 26).
c(67, 27).
c(67, 34).
c(67, 4).
c(67, 49).
c(67, 5).
c(67, 9).
c(68, 33).
c(68, 13).
c(68, 57).
c(68, 17).
c(68, 37).
c(68, 8).
c(69, 37).
c(69, 20).
c(69, 41).
c(69, 55).
c(69, 19).
c(69, 34).
c(69, 46).
c(70, 20).
c(70, 41).
c(70, 12).
c(70, 25).
c(70, 5).
c(70, 34).
c(70, 43).
c(70, 9).
c(70, 26).
c(71, 37).
c(71, 19).
c(71, 53).
c(71, 51).
c(71, 59).
c(72, 49).
c(72, 21).
c(72, 57).
c(72, 32).
c(72, 36).
c(72, 25).
c(72, 5).
c(73, 11).
c(73, 8).
c(73, 27).
c(73, 41).
c(73, 46).
c(73, 24).
c(74, 25).
c(74, 52).
c(74, 6).
c(74, 28).
c(74, 30).
c(74, 53).
c(74, 56).
c(74, 46).
c(74, 35).
c(75, 5).
c(75, 12).
c(75, 51).
c(75, 25).
c(75, 43).
c(75, 35).
c(75, 8).
c(75, 59).
c(75, 21).
c(75, 19).
c(76, 30).
c(76, 40).
c(76, 19).
c(76, 54).
c(76, 1).
c(76, 38).
c(77, 17).
c(77, 29).
c(77, 14).
c(77, 30).
c(77, 18).
c(77, 56).
c(78, 50).
c(78, 44).
c(78, 34).
c(78, 1).
c(78, 16).
c(78, 45).
c(78, 20).
c(78, 53).
c(78, 39).
c(78, 40).
c(79, 23).
c(79, 48).
c(79, 16).
c(79, 47).
c(79, 9).
c(79, 15).
c(79, 14).
c(79, 50).
c(79, 38).
c(79, 33).
