s(0..59).
c(0, 16).
c(0, 20).
c(0, 42).
c(0, 41).
c(0, 4).
c(1, 2).
c(1, 0).
c(1, 21).
c(1, 46).
c(1, 30).
c(1, 6).
c(1, 12).
c(1, 11).
c(1, 3).
c(1, 25).
c(2, 22).
c(2, 2).
c(2, 43).
c(2, 5).
c(2, 58).
c(2, 26).
c(3, 38).
c(3, 16).
c(3, 17).
c(3, 49).
c(3, 47).
c(3, 9).
c(4, 54).
c(4, 24).
c(4, 6).
c(4, 59).
c(4, 39).
c(4, 21).
c(4, 9).
c(4, 11).
c(4, 58).
c(4, 27).
c(4, 4).
c(5, 17).
c(5, 21).
c(5, 6).
c(5, 57).
c(5, 27).
c(5, 51).
c(5, 7).
c(5, 44).
c(5, 13).
c(5, 58).
c(5, 45).
c(6, 35).
c(6, 40).
c(6, 55).
c(6, 14).
c(6, 56).
c(6, 4).
c(6, 31).
c(6, 47).
c(6, 52).
c(6, 19).
c(6, 43).
c(7, 29).
c(7, 6).
c(7, 40).
c(7, 51).
c(7, 22).
c(7, 25).
c(7, 31).
c(7, 36).
c(8, 22).
c(8, 29).
c(8, 38).
c(8, 15).
c(8, 30).
c(8, 4).
c(9, 54).
c(9, 32).
c(9, 58).
c(9, 31).
c(9, 47).
c(10, 47).
c(10, 46).
c(10, 38).
c(10, 10).
c(10, 6).
c(10, 2).
c(10, 11).
c(10, 0).
c(10, 33).
c(11, 14).
c(11, 10).
c(11, 46).
c(11, 3).
c(11, 17).
c(11, 7).
c(11, 39).
c(11, 50).
c(11, 24).
c(11, 6).
c(11, 27).
c(12, 22).
c(12, 57).
c(12, 20).
c(12, 12).
c(12, 43).
c(12, 9).
c(12, 33).
c(12, 38).
c(12, 45).
c(12, 13).
c(12, 37).
c(13, 41).
c(13, 55).
c(13, 36).
c(13, 54).
c(13, 21).
c(13, 14).
c(13, 22).
c(13, 13).
c(14, 31).
c(14, 50).
c(14, 49).
c(14, 17).
c(14, 24).
c(14, 43).
c(15, 28).
c(15, 30).
c(15, 48).
c(15, 1).
c(15, 38).
c(15, 12).
c(15, 54).
c(15, 49).
c(15, 25).
c(15, 20).
c(15, 46).
c(16, 49).
c(16, 20).
c(16, 33).
c(16, 11).
c(16, 44).
c(16, 29).
c(16, 59).
c(16, 58).
c(16, 4).
c(16, 6).
c(17, 53).
c(17, 10).
c(17, 47).
c(17, 46).
c(17, 17).
c(17, 24).
c(17, 44).
c(17, 54).
c(17, 4).
c(17, 5).
c(18, 28).
c(18, 56).
c(18, 50).
c(18, 52).
c(18, 32).
c(18, 36).
c(19, 44).
c(19, 54).
c(19, 28).
c(19, 9).
c(19, 6).
c(19, 55).
c(19, 40).
c(19, 10).
c(19, 0).
c(19, 46).
c(20, 30).
c(20, 26).
c(20, 3).
c(20, 20).
c(20, 49).
c(20, 59).
c(20, 13).
c(20, 55).
c(20, 37).
c(20, 56).
c(20, 40).
c(20, 54).
c(21, 17).
c(21, 19).
c(21, 9).
c(21, 48).
c(21, 10).
c(21, 14).
c(22, 2).
c(22, 15).
c(22, 12).
c(22, 17).
c(22, 32).
c(22, 45).
c(22, 7).
c(23, 56).
c(23, 12).
c(23, 28).
c(23, 22).
c(23, 58).
c(23, 26).
c(23, 29).
c(24, 28).
c(24, 6).
c(24, 23).
c(24, 2).
c(24, 32).
c(24, 26).
c(24, 12).
c(24, 35).
c(24, 11).
c(24, 3).
c(25, 58).
c(25, 43).
c(25, 20).
c(25, 41).
c(25, 11).
c(25, 44).
c(25, 2).
c(26, 1).
c(26, 5).
c(26, 59).
c(26, 0).
c(26, 45).
c(26, 49).
c(26, 17).
c(26, 51).
c(26, 23).
c(26, 58).
c(26, 47).
c(26, 33).
c(27, 24).
c(27, 2).
c(27, 40).
c(27, 9).
c(27, 43).
c(27, 3).
c(27, 20).
c(27, 58).
c(28, 37).
c(28, 3).
c(28, 49).
c(28, 16).
c(28, 1).
c(29, 13).
c(29, 27).
c(29, 34).
c(29, 14).
c(29, 8).
c(29, 49).
c(29, 20).
c(29, 1).
c(30, 5).
c(30, 18).
c(30, 2).
c(30, 35).
c(30, 50).
c(30, 30).
c(30, 57).
c(30, 26).
c(30, 49).
c(31, 11).
c(31, 7).
c(31, 23).
c(31, 24).
c(31, 8).
c(31, 14).
c(31, 0).
c(31, 35).
c(31, 37).
c(31, 21).
c(32, 31).
c(32, 39).
c(32, 50).
c(32, 34).
c(32, 22).
c(32, 41).
c(33, 11).
c(33, 23).
c(33, 53).
c(33, 31).
c(33, 44).
c(33, 9).
c(33, 50).
c(33, 10).
c(33, 13).
c(34, 30).
c(34, 21).
c(34, 42).
c(34, 25).
c(34, 58).
c(34, 9).
c(34, 37).
c(34, 24).
c(34, 28).
c(34, 39).
c(35, 53).
c(35, 33).
c(35, 8).
c(35, 41).
c(35, 56).
c(36, 44).
c(36, 47).
c(36, 11).
c(36, 50).
c(36, 21).
c(36, 15).
c(37, 50).
c(37, 33).
c(37, 52).
c(37, 39).
c(37, 48).
c(38, 1).
c(38, 55).
c(38, 48).
c(38, 30).
c(38, 4).
c(38, 26).
c(38, 27).
c(38, 31).
c(38, 57).
c(38, 17).
c(39, 22).
c(39, 35).
c(39, 36).
c(39, 59).
c(39, 24).
c(39, 9).
c(39, 41).
c(39, 20).
c(39, 54).
c(39, 42).
c(39, 2).
c(40, 17).
c(40, 30).
c(40, 20).
c(40, 3).
c(40, 57).
c(40, 32).
c(41, 59).
c(41, 17).
c(41, 7).
c(41, 32).
c(41, 28).
c(41, 6).
c(41, 49).
c(41, 0).
c(41, 10).
c(41, 45).
c(42, 23).
c(42, 7).
c(42, 11).
c(42, 50).
c(42, 21).
c(42, 18).
c(42, 37).
c(42, 34).
c(42, 57).
c(43, 45).
c(43, 52).
c(43, 17).
c(43, 8).
c(43, 33).
c(43, 13).
c(43, 42).
c(43, 57).
c(43, 11).
c(43, 22).
c(43, 7).
c(44, 58).
c(44, 36).
c(44, 14).
c(44, 0).
c(44, 1).
c(44, 52).
c(45, 16).
c(45, 31).
c(45, 44).
c(45, 42).
c(45, 2).
c(45, 8).
c(45, 39).
c(45, 38).
c(45, 21).
c(45, 13).
c(46, 29).
c(46, 57).
c(46, 42).
c(46, 59).
c(46, 31).
c(46, 51).
c(46, 41).
c(46, 53).
c(46, 7).
c(46, 52).
c(46, 17).
c(46, 33).
c(47, 46).
c(47, 43).
c(47, 5).
c(47, 22).
c(47, 37).
c(47, 57).
c(47, 35).
c(47, 55).
c(47, 23).
c(47, 13).
c(48, 43).
c(48, 45).
c(48, 2).
c(48, 11).
c(48, 19).
c(49, 58).
c(49, 9).
c(49, 36).
c(49, 3).
c(49, 22).
c(49, 56).
c(49, 25).
c(49, 32).
c(49, 40).
c(50, 53).
c(50, 39).
c(50, 4).
c(50, 19).
c(50, 38).
c(50, 44).
c(50, 5).
c(50, 0).
c(51, 35).
c(51, 15).
c(51, 40).
c(51, 50).
c(51, 58).
c(51, 12).
c(51, 30).
c(51, 17).
c(51, 22).
c(51, 43).
c(52, 58).
c(52, 5).
c(52, 56).
c(52, 26).
c(52, 20).
c(52, 55).
c(52, 44).
c(53, 53).
c(53, 5).
c(53, 35).
c(53, 7).
c(53, 0).
c(53, 20).
c(53, 52).
c(53, 14).
c(54, 33).
c(54, 59).
c(54, 18).
c(54, 42).
c(54, 7).
c(54, 40).
c(54, 22).
c(54, 4).
c(54, 41).
c(54, 49).
c(54, 47).
c(55, 18).
c(55, 11).
c(55, 55).
c(55, 29).
c(55, 1).
c(55, 23).
c(55, 22).
c(55, 25).
c(55, 28).
c(55, 8).
c(56, 32).
c(56, 59).
c(56, 46).
c(56, 6).
c(56, 39).
c(56, 42).
c(56, 16).
c(57, 44).
c(57, 22).
c(57, 50).
c(57, 11).
c(57, 6).
c(57, 14).
c(58, 4).
c(58, 53).
c(58, 8).
c(58, 44).
c(58, 37).
c(58, 6).
c(58, 46).
c(58, 45).
c(59, 20).
c(59, 21).
c(59, 50).
c(59, 9).
c(59, 26).
c(60, 2).
c(60, 54).
c(60, 5).
c(60, 45).
c(60, 29).
c(60, 30).
c(60, 46).
c(60, 51).
c(60, 41).
c(60, 49).
c(60, 28).
c(61, 9).
c(61, 8).
c(61, 12).
c(61, 58).
c(61, 50).
c(61, 33).
c(61, 15).
c(61, 51).
c(61, 0).
c(62, 30).
c(62, 43).
c(62, 5).
c(62, 45).
c(62, 17).
c(62, 22).
c(62, 27).
c(62, 46).
c(63, 4).
c(63, 23).
c(63, 31).
c(63, 46).
c(63, 13).
c(63, 49).
c(63, 3).
c(64, 5).
c(64, 6).
c(64, 55).
c(64, 52).
c(64, 49).
c(65, 53).
c(65, 28).
c(65, 8).
c(65, 29).
c(65, 41).
c(65, 31).
c(65, 7).
c(65, 37).
c(65, 50).
c(65, 38).
c(66, 25).
c(66, 17).
c(66, 23).
c(66, 5).
c(66, 57).
c(66, 29).
c(66, 55).
c(66, 34).
c(66, 6).
c(67, 44).
c(67, 37).
c(67, 30).
c(67, 7).
c(67, 11).
c(67, 57).
c(67, 31).
c(67, 1).
c(67, 46).
c(67, 2).
c(67, 52).
c(68, 53).
c(68, 33).
c(68, 4).
c(68, 38).
c(68, 46).
c(68, 20).
c(68, 52).
c(68, 13).
c(68, 26).
c(68, 36).
c(69, 40).
c(69, 16).
c(69, 47).
c(69, 46).
c(69, 45).
c(69, 56).
c(69, 38).
c(69, 54).
c(69, 19).
c(69, 22).
c(70, 41).
c(70, 36).
c(70, 10).
c(70, 33).
c(70, 44).
c(70, 8).
c(70, 12).
c(70, 32).
c(71, 57).
c(71, 5).
c(71, 25).
c(71, 43).
c(71, 32).
c(71, 50).
c(71, 14).
c(71, 21).
c(72, 46).
c(72, 54).
c(72, 28).
c(72, 44).
c(72, 23).
c(72, 36).
c(72, 40).
c(72, 26).
c(72, 5).
c(73, 50).
c(73, 47).
c(73, 55).
c(73, 48).
c(73, 52).
c(73, 56).
c(73, 33).
c(73, 46).
c(73, 11).
c(73, 44).
c(73, 30).
c(74, 20).
c(74, 15).
c(74, 38).
c(74, 56).
c(74, 16).
c(74, 44).
c(74, 57).
c(75, 19).
c(75, 15).
c(75, 27).
c(75, 13).
c(75, 31).
c(75, 24).
c(75, 36).
c(75, 2).
c(75, 3).
c(75, 50).
c(76, 51).
c(76, 50).
c(76, 10).
c(76, 2).
c(76, 25).
c(76, 27).
c(76, 21).
c(76, 28).
c(76, 40).
c(76, 49).
c(76, 53).
c(77, 7).
c(77, 2).
c(77, 12).
c(77, 14).
c(77, 54).
c(78, 52).
c(78, 24).
c(78, 38).
c(78, 17).
c(78, 4).
c(78, 9).
c(78, 6).
c(78, 20).
c(78, 14).
c(78, 53).
c(79, 37).
c(79, 21).
c(79, 55).
c(79, 33).
c(79, 57).
c(79, 34).
