subset(1..70).
c(1, 289).
c(1, 290).
c(1, 70).
c(1, 140).
c(1, 287).
c(2, 40).
c(2, 208).
c(2, 154).
c(2, 253).
c(2, 191).
c(3, 10).
c(3, 116).
c(3, 55).
c(3, 248).
c(3, 63).
c(4, 33).
c(4, 27).
c(4, 11).
c(4, 19).
c(4, 123).
c(5, 131).
c(5, 172).
c(5, 336).
c(5, 311).
c(5, 124).
c(6, 166).
c(6, 213).
c(6, 152).
c(6, 249).
c(6, 287).
c(7, 138).
c(7, 14).
c(7, 211).
c(7, 250).
c(7, 123).
c(8, 6).
c(8, 296).
c(8, 145).
c(8, 178).
c(8, 155).
c(9, 4).
c(9, 234).
c(9, 342).
c(9, 57).
c(9, 125).
c(10, 13).
c(10, 206).
c(10, 144).
c(10, 125).
c(10, 319).
c(11, 232).
c(11, 238).
c(11, 306).
c(11, 24).
c(11, 27).
c(12, 34).
c(12, 323).
c(12, 267).
c(12, 214).
c(12, 120).
c(13, 198).
c(13, 327).
c(13, 18).
c(13, 19).
c(13, 313).
c(14, 325).
c(14, 212).
c(14, 285).
c(14, 62).
c(14, 95).
c(15, 101).
c(15, 167).
c(15, 210).
c(15, 187).
c(15, 317).
c(16, 262).
c(16, 199).
c(16, 295).
c(16, 241).
c(16, 218).
c(17, 65).
c(17, 161).
c(17, 67).
c(17, 104).
c(17, 305).
c(18, 96).
c(18, 107).
c(18, 312).
c(18, 253).
c(18, 62).
c(19, 99).
c(19, 163).
c(19, 179).
c(19, 84).
c(19, 30).
c(20, 258).
c(20, 237).
c(20, 79).
c(20, 28).
c(20, 62).
c(21, 129).
c(21, 42).
c(21, 106).
c(21, 301).
c(21, 239).
c(22, 15).
c(22, 17).
c(22, 88).
c(22, 251).
c(22, 125).
c(23, 256).
c(23, 273).
c(23, 274).
c(23, 247).
c(23, 222).
c(24, 291).
c(24, 195).
c(24, 231).
c(24, 137).
c(24, 124).
c(25, 288).
c(25, 292).
c(25, 234).
c(25, 143).
c(25, 250).
c(26, 64).
c(26, 338).
c(26, 52).
c(26, 340).
c(26, 61).
c(27, 7).
c(27, 302).
c(27, 113).
c(27, 178).
c(27, 59).
c(28, 322).
c(28, 325).
c(28, 230).
c(28, 202).
c(28, 171).
c(29, 193).
c(29, 325).
c(29, 133).
c(29, 46).
c(29, 349).
c(30, 260).
c(30, 211).
c(30, 213).
c(30, 120).
c(30, 286).
c(31, 133).
c(31, 102).
c(31, 327).
c(31, 82).
c(31, 52).
c(32, 39).
c(32, 41).
c(32, 336).
c(32, 337).
c(32, 22).
c(33, 164).
c(33, 260).
c(33, 102).
c(33, 230).
c(33, 185).
c(34, 197).
c(34, 145).
c(34, 182).
c(34, 311).
c(34, 281).
c(35, 163).
c(35, 177).
c(35, 147).
c(35, 249).
c(35, 220).
c(36, 256).
c(36, 335).
c(36, 114).
c(36, 341).
c(36, 154).
c(37, 1).
c(37, 322).
c(37, 102).
c(37, 7).
c(37, 59).
c(38, 330).
c(38, 75).
c(38, 12).
c(38, 174).
c(38, 287).
c(39, 72).
c(39, 273).
c(39, 305).
c(39, 211).
c(39, 84).
c(40, 322).
c(40, 328).
c(40, 268).
c(40, 111).
c(40, 218).
c(41, 322).
c(41, 98).
c(41, 213).
c(41, 91).
c(41, 189).
c(42, 198).
c(42, 136).
c(42, 269).
c(42, 334).
c(42, 157).
c(43, 166).
c(43, 140).
c(43, 118).
c(43, 186).
c(43, 159).
c(44, 64).
c(44, 293).
c(44, 9).
c(44, 241).
c(44, 278).
c(45, 268).
c(45, 81).
c(45, 249).
c(45, 187).
c(45, 31).
c(46, 105).
c(46, 172).
c(46, 111).
c(46, 55).
c(46, 30).
c(47, 161).
c(47, 1).
c(47, 42).
c(47, 171).
c(47, 284).
c(48, 73).
c(48, 273).
c(48, 313).
c(48, 187).
c(48, 31).
c(49, 205).
c(49, 80).
c(49, 58).
c(49, 285).
c(49, 31).
c(50, 323).
c(50, 163).
c(50, 265).
c(50, 280).
c(50, 90).
c(51, 257).
c(51, 41).
c(51, 12).
c(51, 252).
c(51, 254).
c(52, 105).
c(52, 206).
c(52, 208).
c(52, 83).
c(52, 284).
c(53, 101).
c(53, 51).
c(53, 215).
c(53, 157).
c(53, 222).
c(54, 233).
c(54, 9).
c(54, 207).
c(54, 247).
c(54, 347).
c(55, 130).
c(55, 105).
c(55, 298).
c(55, 175).
c(55, 114).
c(56, 40).
c(56, 330).
c(56, 203).
c(56, 108).
c(56, 55).
c(57, 33).
c(57, 195).
c(57, 335).
c(57, 277).
c(57, 121).
c(58, 320).
c(58, 34).
c(58, 194).
c(58, 233).
c(58, 223).
c(59, 261).
c(59, 202).
c(59, 243).
c(59, 244).
c(59, 344).
c(60, 289).
c(60, 9).
c(60, 77).
c(60, 46).
c(60, 214).
c(61, 64).
c(61, 194).
c(61, 170).
c(61, 214).
c(61, 94).
c(62, 65).
c(62, 332).
c(62, 45).
c(62, 277).
c(62, 185).
c(63, 323).
c(63, 305).
c(63, 307).
c(63, 344).
c(63, 253).
c(64, 170).
c(64, 79).
c(64, 337).
c(64, 246).
c(64, 342).
c(65, 327).
c(65, 77).
c(65, 310).
c(65, 283).
c(65, 349).
c(66, 64).
c(66, 261).
c(66, 327).
c(66, 138).
c(66, 75).
c(67, 111).
c(67, 51).
c(67, 54).
c(67, 22).
c(67, 124).
c(68, 258).
c(68, 38).
c(68, 148).
c(68, 87).
c(68, 313).
c(69, 67).
c(69, 164).
c(69, 298).
c(69, 267).
c(69, 270).
c(70, 313).
c(70, 13).
c(70, 304).
c(70, 89).
c(70, 253).
