subset(1..80).
c(1, 264).
c(1, 252).
c(1, 292).
c(1, 176).
c(2, 96).
c(2, 6).
c(2, 244).
c(2, 52).
c(2, 284).
c(2, 125).
c(3, 98).
c(3, 291).
c(3, 20).
c(4, 258).
c(4, 3).
c(4, 297).
c(4, 76).
c(4, 183).
c(4, 94).
c(5, 130).
c(5, 170).
c(5, 269).
c(5, 19).
c(5, 119).
c(5, 216).
c(6, 256).
c(6, 178).
c(6, 194).
c(6, 293).
c(7, 161).
c(7, 199).
c(8, 259).
c(8, 229).
c(8, 235).
c(8, 140).
c(8, 15).
c(8, 87).
c(9, 160).
c(9, 293).
c(9, 234).
c(9, 175).
c(9, 144).
c(9, 121).
c(10, 33).
c(10, 255).
c(10, 135).
c(11, 293).
c(11, 102).
c(11, 298).
c(11, 88).
c(11, 127).
c(12, 192).
c(12, 6).
c(12, 71).
c(13, 135).
c(13, 44).
c(13, 150).
c(13, 56).
c(13, 158).
c(14, 193).
c(14, 99).
c(14, 85).
c(14, 185).
c(14, 253).
c(15, 109).
c(15, 51).
c(15, 141).
c(15, 214).
c(16, 72).
c(16, 60).
c(17, 146).
c(17, 178).
c(17, 26).
c(17, 93).
c(17, 190).
c(17, 63).
c(18, 132).
c(18, 12).
c(18, 51).
c(18, 214).
c(18, 191).
c(19, 90).
c(19, 4).
c(19, 159).
c(20, 105).
c(20, 48).
c(20, 83).
c(20, 121).
c(20, 63).
c(21, 186).
c(21, 170).
c(21, 52).
c(22, 112).
c(22, 221).
c(23, 33).
c(23, 229).
c(23, 200).
c(23, 180).
c(23, 148).
c(23, 255).
c(24, 250).
c(24, 142).
c(24, 39).
c(25, 152).
c(25, 59).
c(25, 229).
c(26, 27).
c(26, 42).
c(26, 213).
c(26, 279).
c(26, 59).
c(27, 261).
c(27, 7).
c(28, 260).
c(28, 266).
c(28, 44).
c(28, 146).
c(28, 250).
c(28, 187).
c(29, 230).
c(29, 167).
c(29, 48).
c(29, 157).
c(29, 62).
c(29, 127).
c(30, 66).
c(30, 235).
c(30, 13).
c(30, 251).
c(30, 240).
c(30, 91).
c(31, 259).
c(31, 292).
c(31, 5).
c(31, 40).
c(31, 112).
c(31, 20).
c(32, 257).
c(32, 294).
c(32, 102).
c(32, 262).
c(32, 119).
c(33, 257).
c(33, 294).
c(34, 275).
c(34, 131).
c(34, 62).
c(34, 167).
c(35, 64).
c(35, 133).
c(35, 6).
c(35, 44).
c(35, 268).
c(35, 121).
c(36, 19).
c(36, 65).
c(36, 35).
c(36, 117).
c(37, 162).
c(37, 165).
c(37, 296).
c(37, 168).
c(37, 44).
c(37, 255).
c(38, 81).
c(38, 138).
c(38, 164).
c(38, 140).
c(39, 265).
c(39, 83).
c(39, 285).
c(39, 287).
c(40, 35).
c(40, 251).
c(40, 141).
c(40, 46).
c(41, 65).
c(41, 66).
c(41, 40).
c(41, 267).
c(41, 240).
c(41, 213).
c(42, 209).
c(42, 67).
c(42, 259).
c(43, 161).
c(43, 66).
c(43, 33).
c(43, 119).
c(44, 0).
c(44, 35).
c(44, 38).
c(44, 108).
c(44, 188).
c(45, 132).
c(45, 169).
c(45, 208).
c(45, 146).
c(45, 214).
c(46, 192).
c(46, 266).
c(46, 269).
c(46, 45).
c(46, 277).
c(46, 215).
c(47, 66).
c(47, 195).
c(47, 164).
c(47, 5).
c(47, 209).
c(47, 51).
c(48, 96).
c(48, 56).
c(48, 184).
c(48, 138).
c(49, 275).
c(49, 62).
c(50, 33).
c(50, 187).
c(50, 44).
c(50, 173).
c(51, 198).
c(51, 206).
c(51, 52).
c(51, 149).
c(51, 22).
c(52, 217).
c(52, 178).
c(52, 219).
c(52, 70).
c(53, 257).
c(53, 34).
c(53, 38).
c(53, 176).
c(53, 179).
c(54, 64).
c(54, 97).
c(54, 130).
c(54, 109).
c(54, 54).
c(54, 187).
c(55, 113).
c(55, 162).
c(55, 51).
c(56, 8).
c(56, 126).
c(57, 25).
c(57, 218).
c(58, 32).
c(58, 195).
c(58, 102).
c(58, 11).
c(58, 146).
c(58, 50).
c(59, 162).
c(59, 251).
c(59, 13).
c(60, 176).
c(60, 239).
c(61, 9).
c(61, 171).
c(61, 269).
c(62, 45).
c(62, 15).
c(63, 280).
c(63, 13).
c(63, 100).
c(63, 149).
c(64, 238).
c(64, 271).
c(64, 146).
c(64, 185).
c(64, 122).
c(64, 252).
c(65, 40).
c(65, 9).
c(65, 87).
c(65, 47).
c(66, 273).
c(66, 262).
c(66, 31).
c(67, 123).
c(67, 213).
c(67, 182).
c(68, 192).
c(68, 163).
c(68, 77).
c(68, 14).
c(68, 28).
c(69, 242).
c(69, 266).
c(69, 43).
c(69, 60).
c(70, 72).
c(70, 189).
c(71, 232).
c(71, 118).
c(71, 189).
c(71, 54).
c(72, 134).
c(72, 287).
c(73, 240).
c(73, 194).
c(73, 250).
c(73, 266).
c(74, 266).
c(74, 118).
c(75, 281).
c(75, 133).
c(75, 55).
c(76, 24).
c(76, 222).
c(76, 143).
c(77, 297).
c(77, 107).
c(77, 263).
c(77, 295).
c(78, 297).
c(78, 106).
c(78, 203).
c(78, 172).
c(78, 176).
c(79, 201).
c(79, 13).
c(80, 106).
c(80, 251).
c(80, 20).
c(80, 34).
