subset(1..80).
c(1, 96).
c(1, 105).
c(1, 79).
c(1, 86).
c(1, 56).
c(2, 205).
c(2, 82).
c(2, 154).
c(2, 379).
c(2, 349).
c(3, 291).
c(3, 110).
c(3, 242).
c(3, 20).
c(3, 346).
c(4, 98).
c(4, 40).
c(4, 22).
c(4, 377).
c(4, 315).
c(5, 32).
c(5, 6).
c(5, 175).
c(5, 212).
c(5, 213).
c(6, 352).
c(6, 391).
c(6, 179).
c(6, 116).
c(6, 151).
c(7, 68).
c(7, 359).
c(7, 369).
c(7, 187).
c(7, 382).
c(8, 12).
c(8, 269).
c(8, 15).
c(8, 115).
c(8, 187).
c(9, 161).
c(9, 367).
c(9, 113).
c(9, 309).
c(9, 187).
c(10, 198).
c(10, 71).
c(10, 231).
c(10, 172).
c(10, 367).
c(11, 131).
c(11, 169).
c(11, 74).
c(11, 238).
c(11, 115).
c(12, 229).
c(12, 81).
c(12, 248).
c(12, 28).
c(12, 381).
c(13, 164).
c(13, 236).
c(13, 336).
c(13, 375).
c(13, 31).
c(14, 322).
c(14, 357).
c(14, 136).
c(14, 170).
c(14, 138).
c(15, 364).
c(15, 49).
c(15, 349).
c(15, 254).
c(15, 223).
c(16, 3).
c(16, 79).
c(16, 80).
c(16, 274).
c(16, 244).
c(17, 295).
c(17, 366).
c(17, 302).
c(17, 308).
c(17, 87).
c(18, 329).
c(18, 204).
c(18, 46).
c(18, 179).
c(18, 220).
c(19, 170).
c(19, 249).
c(19, 282).
c(19, 61).
c(19, 383).
c(20, 68).
c(20, 198).
c(20, 298).
c(20, 178).
c(20, 120).
c(21, 233).
c(21, 12).
c(21, 182).
c(21, 186).
c(21, 349).
c(22, 288).
c(22, 231).
c(22, 16).
c(22, 369).
c(22, 149).
c(23, 3).
c(23, 18).
c(23, 309).
c(23, 247).
c(23, 190).
c(24, 170).
c(24, 234).
c(24, 204).
c(24, 272).
c(24, 188).
c(25, 132).
c(25, 9).
c(25, 107).
c(25, 249).
c(25, 25).
c(26, 385).
c(26, 27).
c(26, 333).
c(26, 379).
c(26, 188).
c(27, 232).
c(27, 246).
c(27, 151).
c(27, 216).
c(27, 28).
c(28, 384).
c(28, 103).
c(28, 180).
c(28, 116).
c(28, 159).
c(29, 67).
c(29, 265).
c(29, 301).
c(29, 186).
c(29, 349).
c(30, 64).
c(30, 357).
c(30, 334).
c(30, 185).
c(30, 186).
c(31, 289).
c(31, 197).
c(31, 72).
c(31, 372).
c(31, 254).
c(32, 325).
c(32, 41).
c(32, 251).
c(32, 271).
c(32, 379).
c(33, 2).
c(33, 104).
c(33, 270).
c(33, 152).
c(33, 253).
c(34, 5).
c(34, 39).
c(34, 242).
c(34, 211).
c(34, 287).
c(35, 37).
c(35, 75).
c(35, 171).
c(35, 306).
c(35, 255).
c(36, 34).
c(36, 356).
c(36, 20).
c(36, 277).
c(36, 149).
c(37, 197).
c(37, 72).
c(37, 398).
c(37, 207).
c(37, 184).
c(38, 331).
c(38, 274).
c(38, 341).
c(38, 309).
c(38, 281).
c(39, 164).
c(39, 76).
c(39, 173).
c(39, 376).
c(39, 219).
c(40, 192).
c(40, 293).
c(40, 360).
c(40, 168).
c(40, 222).
c(41, 226).
c(41, 102).
c(41, 208).
c(41, 376).
c(41, 191).
c(42, 288).
c(42, 363).
c(42, 15).
c(42, 303).
c(42, 340).
c(43, 362).
c(43, 332).
c(43, 185).
c(43, 252).
c(43, 95).
c(44, 67).
c(44, 334).
c(44, 241).
c(44, 248).
c(44, 59).
c(45, 1).
c(45, 391).
c(45, 42).
c(45, 79).
c(45, 219).
c(46, 68).
c(46, 293).
c(46, 269).
c(46, 313).
c(46, 62).
c(47, 35).
c(47, 74).
c(47, 341).
c(47, 124).
c(47, 61).
c(48, 128).
c(48, 70).
c(48, 306).
c(48, 221).
c(48, 318).
c(49, 261).
c(49, 77).
c(49, 335).
c(49, 23).
c(49, 316).
c(50, 134).
c(50, 233).
c(50, 176).
c(50, 55).
c(50, 62).
c(51, 358).
c(51, 8).
c(51, 365).
c(51, 173).
c(51, 182).
c(52, 324).
c(52, 389).
c(52, 24).
c(52, 60).
c(52, 191).
c(53, 299).
c(53, 397).
c(53, 366).
c(53, 58).
c(53, 60).
c(54, 168).
c(54, 81).
c(54, 212).
c(54, 118).
c(54, 61).
c(55, 289).
c(55, 7).
c(55, 39).
c(55, 395).
c(55, 183).
c(56, 38).
c(56, 45).
c(56, 237).
c(56, 86).
c(56, 157).
c(57, 67).
c(57, 387).
c(57, 169).
c(57, 47).
c(57, 314).
c(58, 166).
c(58, 230).
c(58, 301).
c(58, 77).
c(58, 308).
c(59, 67).
c(59, 101).
c(59, 5).
c(59, 359).
c(59, 232).
c(60, 100).
c(60, 389).
c(60, 299).
c(60, 18).
c(60, 376).
c(61, 302).
c(61, 177).
c(61, 274).
c(61, 122).
c(61, 92).
c(62, 255).
c(62, 137).
c(62, 86).
c(62, 347).
c(62, 191).
c(63, 288).
c(63, 353).
c(63, 71).
c(63, 137).
c(63, 61).
c(64, 76).
c(64, 13).
c(64, 399).
c(64, 143).
c(64, 282).
c(65, 384).
c(65, 386).
c(65, 327).
c(65, 399).
c(65, 191).
c(66, 130).
c(66, 76).
c(66, 21).
c(66, 118).
c(66, 285).
c(67, 225).
c(67, 44).
c(67, 81).
c(67, 307).
c(67, 89).
c(68, 320).
c(68, 331).
c(68, 172).
c(68, 274).
c(68, 280).
c(69, 234).
c(69, 111).
c(69, 304).
c(69, 57).
c(69, 91).
c(70, 66).
c(70, 227).
c(70, 9).
c(70, 234).
c(70, 345).
c(71, 4).
c(71, 140).
c(71, 76).
c(71, 206).
c(71, 342).
c(72, 99).
c(72, 387).
c(72, 338).
c(72, 247).
c(72, 30).
c(73, 193).
c(73, 330).
c(73, 208).
c(73, 114).
c(73, 23).
c(74, 288).
c(74, 352).
c(74, 72).
c(74, 75).
c(74, 277).
c(75, 298).
c(75, 173).
c(75, 156).
c(75, 88).
c(75, 220).
c(76, 384).
c(76, 130).
c(76, 146).
c(76, 58).
c(76, 317).
c(77, 194).
c(77, 35).
c(77, 149).
c(77, 278).
c(77, 280).
c(78, 288).
c(78, 262).
c(78, 143).
c(78, 145).
c(78, 88).
c(79, 353).
c(79, 200).
c(79, 297).
c(79, 311).
c(79, 312).
c(80, 388).
c(80, 197).
c(80, 268).
c(80, 49).
c(80, 312).
