subset(1..80).
c(1, 66).
c(1, 165).
c(1, 365).
c(1, 117).
c(1, 85).
c(2, 327).
c(2, 169).
c(2, 106).
c(2, 239).
c(2, 93).
c(3, 388).
c(3, 278).
c(3, 312).
c(3, 122).
c(3, 350).
c(4, 99).
c(4, 43).
c(4, 268).
c(4, 116).
c(4, 252).
c(5, 165).
c(5, 148).
c(5, 346).
c(5, 252).
c(5, 93).
c(6, 288).
c(6, 292).
c(6, 390).
c(6, 178).
c(6, 51).
c(7, 34).
c(7, 42).
c(7, 276).
c(7, 342).
c(7, 215).
c(8, 85).
c(8, 117).
c(8, 218).
c(8, 381).
c(8, 223).
c(9, 161).
c(9, 99).
c(9, 261).
c(9, 401).
c(9, 254).
c(10, 260).
c(10, 229).
c(10, 300).
c(10, 90).
c(10, 123).
c(11, 40).
c(11, 106).
c(11, 395).
c(11, 78).
c(11, 337).
c(12, 75).
c(12, 275).
c(12, 309).
c(12, 117).
c(12, 94).
c(13, 352).
c(13, 44).
c(13, 146).
c(13, 313).
c(13, 122).
c(14, 288).
c(14, 354).
c(14, 255).
c(14, 277).
c(14, 31).
c(15, 229).
c(15, 262).
c(15, 8).
c(15, 142).
c(15, 186).
c(16, 293).
c(16, 16).
c(16, 401).
c(16, 310).
c(16, 317).
c(17, 1).
c(17, 267).
c(17, 183).
c(17, 153).
c(17, 382).
c(18, 354).
c(18, 133).
c(18, 207).
c(18, 244).
c(18, 89).
c(19, 130).
c(19, 387).
c(19, 115).
c(19, 155).
c(19, 316).
c(20, 288).
c(20, 129).
c(20, 333).
c(20, 334).
c(20, 247).
c(21, 366).
c(21, 280).
c(21, 57).
c(21, 88).
c(21, 61).
c(22, 68).
c(22, 11).
c(22, 270).
c(22, 212).
c(22, 25).
c(23, 34).
c(23, 174).
c(23, 175).
c(23, 336).
c(23, 159).
c(24, 128).
c(24, 65).
c(24, 393).
c(24, 394).
c(24, 382).
c(25, 70).
c(25, 60).
c(25, 15).
c(25, 213).
c(25, 380).
c(26, 133).
c(26, 198).
c(26, 23).
c(26, 218).
c(26, 31).
c(27, 128).
c(27, 75).
c(27, 303).
c(27, 209).
c(27, 285).
c(28, 234).
c(28, 173).
c(28, 399).
c(28, 211).
c(28, 344).
c(29, 33).
c(29, 394).
c(29, 147).
c(29, 344).
c(29, 252).
c(30, 132).
c(30, 293).
c(30, 70).
c(30, 13).
c(30, 254).
c(31, 49).
c(31, 17).
c(31, 116).
c(31, 117).
c(31, 250).
c(32, 98).
c(32, 355).
c(32, 197).
c(32, 207).
c(32, 79).
c(33, 99).
c(33, 296).
c(33, 314).
c(33, 27).
c(33, 382).
c(34, 256).
c(34, 232).
c(34, 43).
c(34, 49).
c(34, 21).
c(35, 192).
c(35, 85).
c(35, 86).
c(35, 252).
c(35, 61).
c(36, 294).
c(36, 262).
c(36, 370).
c(36, 83).
c(36, 308).
c(37, 71).
c(37, 398).
c(37, 246).
c(37, 283).
c(37, 95).
c(38, 103).
c(38, 203).
c(38, 208).
c(38, 150).
c(38, 57).
c(39, 102).
c(39, 104).
c(39, 283).
c(39, 250).
c(39, 59).
c(40, 200).
c(40, 47).
c(40, 212).
c(40, 246).
c(40, 62).
c(41, 227).
c(41, 228).
c(41, 368).
c(41, 311).
c(41, 348).
c(42, 390).
c(42, 281).
c(42, 213).
c(42, 313).
c(42, 347).
c(43, 295).
c(43, 142).
c(43, 371).
c(43, 121).
c(43, 90).
c(44, 164).
c(44, 169).
c(44, 201).
c(44, 237).
c(44, 25).
c(45, 226).
c(45, 292).
c(45, 238).
c(45, 367).
c(45, 344).
c(46, 324).
c(46, 295).
c(46, 394).
c(46, 140).
c(46, 118).
c(47, 37).
c(47, 108).
c(47, 365).
c(47, 251).
c(47, 255).
c(48, 37).
c(48, 333).
c(48, 278).
c(48, 189).
c(48, 62).
c(49, 289).
c(49, 325).
c(49, 38).
c(49, 39).
c(49, 206).
c(50, 173).
c(50, 15).
c(50, 52).
c(50, 278).
c(50, 94).
c(51, 176).
c(51, 272).
c(51, 148).
c(51, 117).
c(51, 281).
c(52, 398).
c(52, 335).
c(52, 372).
c(52, 121).
c(52, 286).
c(53, 178).
c(53, 246).
c(53, 22).
c(53, 30).
c(53, 351).
c(54, 38).
c(54, 200).
c(54, 136).
c(54, 119).
c(54, 284).
c(55, 321).
c(55, 34).
c(55, 299).
c(55, 110).
c(55, 341).
c(56, 332).
c(56, 78).
c(56, 303).
c(56, 52).
c(56, 63).
c(57, 232).
c(57, 393).
c(57, 145).
c(57, 210).
c(57, 21).
c(58, 322).
c(58, 391).
c(58, 43).
c(58, 303).
c(58, 158).
c(59, 267).
c(59, 43).
c(59, 212).
c(59, 345).
c(59, 316).
c(60, 134).
c(60, 166).
c(60, 207).
c(60, 240).
c(60, 346).
c(61, 228).
c(61, 229).
c(61, 172).
c(61, 109).
c(61, 275).
c(62, 322).
c(62, 386).
c(62, 71).
c(62, 208).
c(62, 86).
c(63, 325).
c(63, 111).
c(63, 276).
c(63, 184).
c(63, 315).
c(64, 37).
c(64, 264).
c(64, 217).
c(64, 124).
c(64, 319).
c(65, 32).
c(65, 256).
c(65, 114).
c(65, 374).
c(65, 311).
c(66, 202).
c(66, 397).
c(66, 274).
c(66, 345).
c(66, 95).
c(67, 352).
c(67, 2).
c(67, 308).
c(67, 119).
c(67, 252).
c(68, 7).
c(68, 265).
c(68, 298).
c(68, 202).
c(68, 364).
c(69, 364).
c(69, 333).
c(69, 400).
c(69, 183).
c(69, 348).
c(70, 229).
c(70, 73).
c(70, 147).
c(70, 308).
c(70, 87).
c(71, 321).
c(71, 336).
c(71, 181).
c(71, 221).
c(71, 94).
c(72, 256).
c(72, 129).
c(72, 325).
c(72, 136).
c(72, 223).
c(73, 34).
c(73, 133).
c(73, 300).
c(73, 309).
c(73, 157).
c(74, 64).
c(74, 259).
c(74, 397).
c(74, 147).
c(74, 379).
c(75, 259).
c(75, 108).
c(75, 239).
c(75, 372).
c(75, 220).
c(76, 354).
c(76, 386).
c(76, 366).
c(76, 270).
c(76, 250).
c(77, 324).
c(77, 167).
c(77, 53).
c(77, 57).
c(77, 252).
c(78, 228).
c(78, 9).
c(78, 368).
c(78, 215).
c(78, 188).
c(79, 325).
c(79, 105).
c(79, 12).
c(79, 336).
c(79, 115).
c(80, 67).
c(80, 303).
c(80, 16).
c(80, 24).
c(80, 255).
