subset(1..80).
c(1, 326).
c(1, 134).
c(1, 396).
c(1, 237).
c(1, 14).
c(2, 328).
c(2, 178).
c(2, 23).
c(2, 252).
c(2, 222).
c(3, 193).
c(3, 165).
c(3, 237).
c(3, 22).
c(3, 281).
c(4, 129).
c(4, 163).
c(4, 259).
c(4, 253).
c(4, 287).
c(5, 1).
c(5, 230).
c(5, 107).
c(5, 398).
c(5, 338).
c(6, 262).
c(6, 238).
c(6, 178).
c(6, 215).
c(6, 120).
c(7, 193).
c(7, 354).
c(7, 200).
c(7, 205).
c(7, 272).
c(8, 355).
c(8, 200).
c(8, 140).
c(8, 212).
c(8, 318).
c(9, 289).
c(9, 67).
c(9, 4).
c(9, 103).
c(9, 270).
c(10, 299).
c(10, 270).
c(10, 304).
c(10, 84).
c(10, 380).
c(11, 159).
c(11, 35).
c(11, 75).
c(11, 51).
c(11, 31).
c(12, 33).
c(12, 329).
c(12, 208).
c(12, 310).
c(12, 221).
c(13, 166).
c(13, 15).
c(13, 113).
c(13, 117).
c(13, 88).
c(14, 134).
c(14, 198).
c(14, 393).
c(14, 307).
c(14, 122).
c(15, 384).
c(15, 269).
c(15, 240).
c(15, 276).
c(15, 213).
c(16, 290).
c(16, 230).
c(16, 233).
c(16, 234).
c(16, 145).
c(17, 289).
c(17, 81).
c(17, 145).
c(17, 373).
c(17, 23).
c(18, 128).
c(18, 144).
c(18, 150).
c(18, 221).
c(18, 31).
c(19, 271).
c(19, 240).
c(19, 211).
c(19, 284).
c(19, 62).
c(20, 131).
c(20, 102).
c(20, 360).
c(20, 43).
c(20, 149).
c(21, 332).
c(21, 58).
c(21, 92).
c(21, 222).
c(21, 383).
c(22, 32).
c(22, 233).
c(22, 315).
c(22, 123).
c(22, 381).
c(23, 8).
c(23, 49).
c(23, 21).
c(23, 346).
c(23, 158).
c(24, 386).
c(24, 325).
c(24, 327).
c(24, 150).
c(24, 127).
c(25, 67).
c(25, 77).
c(25, 47).
c(25, 246).
c(25, 222).
c(26, 271).
c(26, 370).
c(26, 83).
c(26, 403).
c(26, 245).
c(27, 4).
c(27, 78).
c(27, 220).
c(27, 156).
c(27, 62).
c(28, 67).
c(28, 227).
c(28, 7).
c(28, 233).
c(28, 18).
c(29, 102).
c(29, 230).
c(29, 233).
c(29, 244).
c(29, 341).
c(30, 136).
c(30, 83).
c(30, 340).
c(30, 213).
c(30, 28).
c(31, 5).
c(31, 101).
c(31, 329).
c(31, 235).
c(31, 44).
c(32, 66).
c(32, 339).
c(32, 373).
c(32, 120).
c(32, 383).
c(33, 163).
c(33, 360).
c(33, 169).
c(33, 18).
c(33, 403).
c(34, 257).
c(34, 130).
c(34, 261).
c(34, 271).
c(34, 244).
c(35, 128).
c(35, 305).
c(35, 55).
c(35, 56).
c(35, 382).
c(36, 185).
c(36, 387).
c(36, 327).
c(36, 151).
c(36, 121).
c(37, 193).
c(37, 5).
c(37, 79).
c(37, 371).
c(37, 349).
c(38, 166).
c(38, 44).
c(38, 206).
c(38, 14).
c(38, 350).
c(39, 263).
c(39, 199).
c(39, 246).
c(39, 250).
c(39, 27).
c(40, 296).
c(40, 41).
c(40, 403).
c(40, 118).
c(40, 319).
c(41, 5).
c(41, 134).
c(41, 200).
c(41, 201).
c(41, 139).
c(42, 320).
c(42, 296).
c(42, 272).
c(42, 119).
c(42, 313).
c(43, 164).
c(43, 69).
c(43, 43).
c(43, 107).
c(43, 114).
c(44, 33).
c(44, 242).
c(44, 372).
c(44, 85).
c(44, 246).
c(45, 161).
c(45, 98).
c(45, 35).
c(45, 260).
c(45, 62).
c(46, 12).
c(46, 13).
c(46, 397).
c(46, 377).
c(46, 127).
c(47, 165).
c(47, 78).
c(47, 20).
c(47, 315).
c(47, 94).
c(48, 35).
c(48, 164).
c(48, 359).
c(48, 200).
c(48, 249).
c(49, 39).
c(49, 7).
c(49, 394).
c(49, 76).
c(49, 377).
c(50, 320).
c(50, 231).
c(50, 141).
c(50, 342).
c(50, 221).
c(51, 324).
c(51, 69).
c(51, 363).
c(51, 203).
c(51, 60).
c(52, 196).
c(52, 261).
c(52, 327).
c(52, 136).
c(52, 318).
c(53, 128).
c(53, 102).
c(53, 85).
c(53, 123).
c(53, 61).
c(54, 257).
c(54, 2).
c(54, 131).
c(54, 266).
c(54, 114).
c(55, 359).
c(55, 296).
c(55, 251).
c(55, 347).
c(55, 126).
c(56, 131).
c(56, 232).
c(56, 212).
c(56, 183).
c(56, 127).
c(57, 163).
c(57, 10).
c(57, 236).
c(57, 313).
c(57, 221).
c(58, 98).
c(58, 284).
c(58, 285).
c(58, 318).
c(58, 383).
c(59, 262).
c(59, 79).
c(59, 17).
c(59, 179).
c(59, 255).
c(60, 65).
c(60, 239).
c(60, 370).
c(60, 23).
c(60, 156).
c(61, 257).
c(61, 162).
c(61, 359).
c(61, 81).
c(61, 187).
c(62, 234).
c(62, 270).
c(62, 83).
c(62, 118).
c(62, 221).
c(63, 203).
c(63, 204).
c(63, 209).
c(63, 216).
c(63, 254).
c(64, 229).
c(64, 16).
c(64, 337).
c(64, 308).
c(64, 349).
c(65, 3).
c(65, 10).
c(65, 82).
c(65, 83).
c(65, 94).
c(66, 67).
c(66, 12).
c(66, 46).
c(66, 206).
c(66, 52).
c(67, 69).
c(67, 104).
c(67, 140).
c(67, 302).
c(67, 153).
c(68, 326).
c(68, 231).
c(68, 177).
c(68, 212).
c(68, 221).
c(69, 356).
c(69, 336).
c(69, 145).
c(69, 345).
c(69, 186).
c(70, 229).
c(70, 73).
c(70, 362).
c(70, 302).
c(70, 240).
c(71, 4).
c(71, 367).
c(71, 22).
c(71, 314).
c(71, 156).
c(72, 321).
c(72, 207).
c(72, 81).
c(72, 342).
c(72, 23).
c(73, 196).
c(73, 39).
c(73, 201).
c(73, 206).
c(73, 175).
c(74, 257).
c(74, 230).
c(74, 274).
c(74, 152).
c(74, 155).
c(75, 260).
c(75, 169).
c(75, 238).
c(75, 251).
c(75, 28).
c(76, 398).
c(76, 242).
c(76, 19).
c(76, 116).
c(76, 121).
c(77, 103).
c(77, 297).
c(77, 213).
c(77, 25).
c(77, 285).
c(78, 163).
c(78, 5).
c(78, 38).
c(78, 199).
c(78, 219).
c(79, 354).
c(79, 261).
c(79, 263).
c(79, 106).
c(79, 141).
c(80, 109).
c(80, 365).
c(80, 183).
c(80, 88).
c(80, 126).
