subset(1..70).
c(1, 320).
c(1, 97).
c(1, 133).
c(1, 103).
c(1, 346).
c(2, 3).
c(2, 131).
c(2, 77).
c(2, 18).
c(2, 157).
c(3, 2).
c(3, 298).
c(3, 313).
c(3, 317).
c(3, 125).
c(4, 233).
c(4, 277).
c(4, 153).
c(4, 314).
c(4, 123).
c(5, 36).
c(5, 41).
c(5, 43).
c(5, 207).
c(5, 86).
c(6, 233).
c(6, 214).
c(6, 342).
c(6, 314).
c(6, 284).
c(7, 132).
c(7, 53).
c(7, 54).
c(7, 119).
c(7, 315).
c(8, 263).
c(8, 137).
c(8, 110).
c(8, 218).
c(8, 188).
c(9, 331).
c(9, 77).
c(9, 302).
c(9, 147).
c(9, 54).
c(10, 195).
c(10, 172).
c(10, 239).
c(10, 178).
c(10, 158).
c(11, 224).
c(11, 128).
c(11, 73).
c(11, 12).
c(11, 243).
c(12, 132).
c(12, 43).
c(12, 15).
c(12, 207).
c(12, 276).
c(13, 128).
c(13, 259).
c(13, 274).
c(13, 247).
c(13, 159).
c(14, 259).
c(14, 275).
c(14, 84).
c(14, 26).
c(14, 30).
c(15, 4).
c(15, 14).
c(15, 143).
c(15, 178).
c(15, 87).
c(16, 100).
c(16, 263).
c(16, 302).
c(16, 178).
c(16, 349).
c(17, 162).
c(17, 323).
c(17, 101).
c(17, 302).
c(17, 307).
c(18, 299).
c(18, 118).
c(18, 246).
c(18, 152).
c(18, 317).
c(19, 97).
c(19, 168).
c(19, 202).
c(19, 54).
c(19, 185).
c(20, 196).
c(20, 43).
c(20, 147).
c(20, 84).
c(20, 28).
c(21, 224).
c(21, 303).
c(21, 21).
c(21, 218).
c(21, 124).
c(22, 166).
c(22, 263).
c(22, 329).
c(22, 302).
c(22, 153).
c(23, 195).
c(23, 231).
c(23, 138).
c(23, 107).
c(23, 188).
c(24, 66).
c(24, 294).
c(24, 296).
c(24, 80).
c(24, 339).
c(25, 132).
c(25, 9).
c(25, 43).
c(25, 174).
c(25, 48).
c(26, 197).
c(26, 237).
c(26, 277).
c(26, 55).
c(26, 30).
c(27, 198).
c(27, 202).
c(27, 336).
c(27, 310).
c(27, 61).
c(28, 129).
c(28, 261).
c(28, 267).
c(28, 300).
c(28, 309).
c(29, 38).
c(29, 199).
c(29, 117).
c(29, 184).
c(29, 255).
c(30, 112).
c(30, 145).
c(30, 82).
c(30, 345).
c(30, 31).
c(31, 301).
c(31, 176).
c(31, 52).
c(31, 22).
c(31, 317).
c(32, 292).
c(32, 45).
c(32, 302).
c(32, 174).
c(32, 248).
c(33, 161).
c(33, 105).
c(33, 203).
c(33, 51).
c(33, 277).
c(34, 321).
c(34, 107).
c(34, 271).
c(34, 145).
c(34, 50).
c(35, 229).
c(35, 234).
c(35, 147).
c(35, 181).
c(35, 312).
c(36, 68).
c(36, 135).
c(36, 297).
c(36, 341).
c(36, 57).
c(37, 48).
c(37, 242).
c(37, 216).
c(37, 251).
c(37, 188).
c(38, 226).
c(38, 46).
c(38, 174).
c(38, 114).
c(38, 317).
c(39, 322).
c(39, 67).
c(39, 132).
c(39, 8).
c(39, 282).
c(40, 133).
c(40, 10).
c(40, 300).
c(40, 270).
c(40, 152).
c(41, 193).
c(41, 102).
c(41, 304).
c(41, 337).
c(41, 284).
c(42, 36).
c(42, 324).
c(42, 113).
c(42, 345).
c(42, 219).
c(43, 122).
c(43, 23).
c(43, 55).
c(43, 58).
c(43, 188).
c(44, 193).
c(44, 103).
c(44, 45).
c(44, 342).
c(44, 119).
c(45, 129).
c(45, 162).
c(45, 261).
c(45, 19).
c(45, 30).
c(46, 232).
c(46, 266).
c(46, 75).
c(46, 247).
c(46, 252).
c(47, 266).
c(47, 301).
c(47, 179).
c(47, 214).
c(47, 221).
c(48, 323).
c(48, 231).
c(48, 170).
c(48, 335).
c(48, 59).
c(49, 261).
c(49, 70).
c(49, 301).
c(49, 206).
c(49, 217).
c(50, 263).
c(50, 209).
c(50, 51).
c(50, 246).
c(50, 349).
c(51, 224).
c(51, 210).
c(51, 50).
c(51, 151).
c(51, 62).
c(52, 178).
c(52, 52).
c(52, 246).
c(52, 217).
c(52, 92).
c(53, 33).
c(53, 268).
c(53, 302).
c(53, 175).
c(53, 243).
c(54, 32).
c(54, 162).
c(54, 311).
c(54, 281).
c(54, 127).
c(55, 11).
c(55, 239).
c(55, 335).
c(55, 124).
c(55, 62).
c(56, 332).
c(56, 239).
c(56, 152).
c(56, 124).
c(56, 254).
c(57, 4).
c(57, 231).
c(57, 344).
c(57, 282).
c(57, 315).
c(58, 35).
c(58, 36).
c(58, 149).
c(58, 345).
c(58, 58).
c(59, 265).
c(59, 175).
c(59, 82).
c(59, 216).
c(59, 154).
c(60, 296).
c(60, 47).
c(60, 144).
c(60, 341).
c(60, 24).
c(61, 233).
c(61, 331).
c(61, 171).
c(61, 208).
c(61, 56).
c(62, 256).
c(62, 170).
c(62, 206).
c(62, 148).
c(62, 25).
c(63, 289).
c(63, 305).
c(63, 339).
c(63, 213).
c(63, 188).
c(64, 6).
c(64, 14).
c(64, 146).
c(64, 147).
c(64, 346).
c(65, 320).
c(65, 135).
c(65, 333).
c(65, 143).
c(65, 249).
c(66, 193).
c(66, 41).
c(66, 142).
c(66, 310).
c(66, 61).
c(67, 320).
c(67, 239).
c(67, 180).
c(67, 341).
c(67, 159).
c(68, 131).
c(68, 331).
c(68, 75).
c(68, 348).
c(68, 190).
c(69, 161).
c(69, 94).
c(69, 185).
c(69, 348).
c(69, 30).
c(70, 68).
c(70, 327).
c(70, 84).
c(70, 91).
c(70, 61).
