subset(1..80).
c(1, 196).
c(1, 144).
c(1, 339).
c(1, 212).
c(1, 28).
c(2, 2).
c(2, 70).
c(2, 111).
c(2, 148).
c(2, 350).
c(3, 101).
c(3, 13).
c(3, 374).
c(3, 56).
c(3, 123).
c(4, 225).
c(4, 295).
c(4, 141).
c(4, 81).
c(4, 251).
c(5, 161).
c(5, 195).
c(5, 261).
c(5, 277).
c(5, 29).
c(6, 320).
c(6, 329).
c(6, 75).
c(6, 81).
c(6, 27).
c(7, 161).
c(7, 290).
c(7, 9).
c(7, 279).
c(7, 216).
c(8, 1).
c(8, 271).
c(8, 175).
c(8, 147).
c(8, 149).
c(9, 2).
c(9, 389).
c(9, 41).
c(9, 241).
c(9, 58).
c(10, 227).
c(10, 112).
c(10, 49).
c(10, 185).
c(10, 61).
c(11, 104).
c(11, 300).
c(11, 15).
c(11, 220).
c(11, 319).
c(12, 354).
c(12, 336).
c(12, 49).
c(12, 244).
c(12, 151).
c(13, 394).
c(13, 141).
c(13, 240).
c(13, 247).
c(13, 93).
c(14, 328).
c(14, 107).
c(14, 139).
c(14, 277).
c(14, 342).
c(15, 390).
c(15, 135).
c(15, 335).
c(15, 246).
c(15, 89).
c(16, 128).
c(16, 161).
c(16, 141).
c(16, 113).
c(16, 20).
c(17, 132).
c(17, 81).
c(17, 339).
c(17, 214).
c(17, 255).
c(18, 289).
c(18, 67).
c(18, 132).
c(18, 222).
c(18, 191).
c(19, 395).
c(19, 84).
c(19, 181).
c(19, 123).
c(19, 349).
c(20, 74).
c(20, 371).
c(20, 58).
c(20, 62).
c(20, 223).
c(21, 0).
c(21, 389).
c(21, 207).
c(21, 145).
c(21, 253).
c(22, 224).
c(22, 354).
c(22, 132).
c(22, 58).
c(22, 222).
c(23, 108).
c(23, 213).
c(23, 378).
c(23, 317).
c(23, 287).
c(24, 33).
c(24, 259).
c(24, 292).
c(24, 177).
c(24, 281).
c(25, 296).
c(25, 394).
c(25, 148).
c(25, 313).
c(25, 378).
c(26, 384).
c(26, 68).
c(26, 360).
c(26, 213).
c(26, 375).
c(27, 385).
c(27, 227).
c(27, 111).
c(27, 86).
c(27, 350).
c(28, 312).
c(28, 194).
c(28, 216).
c(28, 219).
c(28, 319).
c(29, 290).
c(29, 40).
c(29, 268).
c(29, 210).
c(29, 383).
c(30, 224).
c(30, 298).
c(30, 395).
c(30, 208).
c(30, 284).
c(31, 227).
c(31, 201).
c(31, 276).
c(31, 185).
c(31, 157).
c(32, 196).
c(32, 72).
c(32, 333).
c(32, 305).
c(32, 274).
c(33, 332).
c(33, 77).
c(33, 47).
c(33, 252).
c(33, 93).
c(34, 71).
c(34, 199).
c(34, 112).
c(34, 51).
c(34, 116).
c(35, 140).
c(35, 398).
c(35, 19).
c(35, 53).
c(35, 155).
c(36, 68).
c(36, 167).
c(36, 234).
c(36, 108).
c(36, 110).
c(37, 128).
c(37, 41).
c(37, 299).
c(37, 333).
c(37, 379).
c(38, 96).
c(38, 321).
c(38, 169).
c(38, 203).
c(38, 16).
c(39, 141).
c(39, 399).
c(39, 209).
c(39, 59).
c(39, 349).
c(40, 162).
c(40, 195).
c(40, 339).
c(40, 372).
c(40, 341).
c(41, 138).
c(41, 75).
c(41, 149).
c(41, 247).
c(41, 94).
c(42, 160).
c(42, 225).
c(42, 228).
c(42, 394).
c(42, 214).
c(43, 171).
c(43, 109).
c(43, 303).
c(43, 338).
c(43, 94).
c(44, 96).
c(44, 97).
c(44, 267).
c(44, 215).
c(44, 125).
c(45, 97).
c(45, 390).
c(45, 264).
c(45, 365).
c(45, 30).
c(46, 128).
c(46, 4).
c(46, 210).
c(46, 275).
c(46, 373).
c(47, 129).
c(47, 169).
c(47, 303).
c(47, 368).
c(47, 252).
c(48, 357).
c(48, 262).
c(48, 101).
c(48, 239).
c(48, 350).
c(49, 65).
c(49, 361).
c(49, 170).
c(49, 307).
c(49, 275).
c(50, 128).
c(50, 79).
c(50, 208).
c(50, 21).
c(50, 87).
c(51, 376).
c(51, 44).
c(51, 49).
c(51, 52).
c(51, 312).
c(52, 36).
c(52, 165).
c(52, 105).
c(52, 51).
c(52, 217).
c(53, 292).
c(53, 331).
c(53, 46).
c(53, 18).
c(53, 155).
c(54, 37).
c(54, 108).
c(54, 48).
c(54, 148).
c(54, 156).
c(55, 66).
c(55, 292).
c(55, 176).
c(55, 120).
c(55, 58).
c(56, 128).
c(56, 37).
c(56, 75).
c(56, 85).
c(56, 311).
c(57, 65).
c(57, 194).
c(57, 327).
c(57, 276).
c(57, 187).
c(58, 196).
c(58, 396).
c(58, 47).
c(58, 399).
c(58, 124).
c(59, 163).
c(59, 324).
c(59, 165).
c(59, 203).
c(59, 379).
c(60, 292).
c(60, 132).
c(60, 293).
c(60, 332).
c(60, 174).
c(61, 161).
c(61, 228).
c(61, 25).
c(61, 90).
c(61, 125).
c(62, 1).
c(62, 290).
c(62, 37).
c(62, 270).
c(62, 372).
c(63, 232).
c(63, 237).
c(63, 45).
c(63, 341).
c(63, 251).
c(64, 139).
c(64, 209).
c(64, 308).
c(64, 151).
c(64, 91).
c(65, 165).
c(65, 69).
c(65, 299).
c(65, 381).
c(65, 287).
c(66, 320).
c(66, 196).
c(66, 106).
c(66, 237).
c(66, 89).
c(67, 96).
c(67, 4).
c(67, 149).
c(67, 348).
c(67, 126).
c(68, 293).
c(68, 19).
c(68, 373).
c(68, 377).
c(68, 254).
c(69, 320).
c(69, 76).
c(69, 20).
c(69, 149).
c(69, 191).
c(70, 105).
c(70, 306).
c(70, 245).
c(70, 278).
c(70, 376).
c(71, 385).
c(71, 387).
c(71, 206).
c(71, 244).
c(71, 375).
c(72, 357).
c(72, 38).
c(72, 168).
c(72, 335).
c(72, 59).
c(73, 359).
c(73, 360).
c(73, 146).
c(73, 179).
c(73, 306).
c(74, 324).
c(74, 46).
c(74, 341).
c(74, 24).
c(74, 318).
c(75, 163).
c(75, 5).
c(75, 263).
c(75, 177).
c(75, 53).
c(76, 168).
c(76, 299).
c(76, 207).
c(76, 335).
c(76, 217).
c(77, 294).
c(77, 72).
c(77, 55).
c(77, 54).
c(77, 342).
c(78, 389).
c(78, 207).
c(78, 152).
c(78, 185).
c(78, 189).
c(79, 195).
c(79, 260).
c(79, 357).
c(79, 265).
c(79, 376).
c(80, 35).
c(80, 325).
c(80, 359).
c(80, 56).
c(80, 58).
