subset(1..80).
c(1, 38).
c(1, 263).
c(1, 272).
c(1, 148).
c(1, 218).
c(2, 66).
c(2, 270).
c(2, 49).
c(2, 114).
c(2, 182).
c(3, 391).
c(3, 74).
c(3, 332).
c(3, 173).
c(3, 313).
c(4, 360).
c(4, 381).
c(4, 341).
c(4, 218).
c(4, 61).
c(5, 68).
c(5, 299).
c(5, 364).
c(5, 86).
c(5, 118).
c(6, 33).
c(6, 299).
c(6, 268).
c(6, 346).
c(6, 189).
c(7, 165).
c(7, 137).
c(7, 339).
c(7, 345).
c(7, 316).
c(8, 333).
c(8, 334).
c(8, 305).
c(8, 117).
c(8, 89).
c(9, 170).
c(9, 365).
c(9, 115).
c(9, 307).
c(9, 158).
c(10, 163).
c(10, 165).
c(10, 232).
c(10, 170).
c(10, 364).
c(11, 388).
c(11, 261).
c(11, 5).
c(11, 380).
c(11, 317).
c(12, 33).
c(12, 265).
c(12, 139).
c(12, 81).
c(12, 158).
c(13, 195).
c(13, 228).
c(13, 328).
c(13, 234).
c(13, 206).
c(14, 322).
c(14, 35).
c(14, 10).
c(14, 244).
c(14, 26).
c(15, 141).
c(15, 249).
c(15, 282).
c(15, 283).
c(15, 253).
c(16, 164).
c(16, 42).
c(16, 75).
c(16, 247).
c(16, 283).
c(17, 129).
c(17, 333).
c(17, 366).
c(17, 374).
c(17, 383).
c(18, 293).
c(18, 205).
c(18, 81).
c(18, 313).
c(18, 58).
c(19, 192).
c(19, 356).
c(19, 100).
c(19, 178).
c(19, 370).
c(20, 264).
c(20, 76).
c(20, 114).
c(20, 20).
c(20, 189).
c(21, 65).
c(21, 272).
c(21, 244).
c(21, 27).
c(21, 348).
c(22, 231).
c(22, 138).
c(22, 307).
c(22, 374).
c(22, 54).
c(23, 160).
c(23, 395).
c(23, 50).
c(23, 307).
c(23, 221).
c(24, 33).
c(24, 292).
c(24, 198).
c(24, 242).
c(24, 91).
c(25, 258).
c(25, 237).
c(25, 47).
c(25, 122).
c(25, 379).
c(26, 1).
c(26, 358).
c(26, 185).
c(26, 26).
c(26, 319).
c(27, 164).
c(27, 101).
c(27, 231).
c(27, 105).
c(27, 28).
c(28, 249).
c(28, 269).
c(28, 114).
c(28, 55).
c(28, 121).
c(29, 259).
c(29, 7).
c(29, 56).
c(29, 58).
c(29, 380).
c(30, 323).
c(30, 201).
c(30, 393).
c(30, 94).
c(30, 318).
c(31, 192).
c(31, 297).
c(31, 334).
c(31, 80).
c(31, 305).
c(32, 386).
c(32, 117).
c(32, 248).
c(32, 25).
c(32, 216).
c(33, 3).
c(33, 391).
c(33, 15).
c(33, 245).
c(33, 189).
c(34, 139).
c(34, 53).
c(34, 342).
c(34, 311).
c(34, 92).
c(35, 290).
c(35, 356).
c(35, 328).
c(35, 77).
c(35, 208).
c(36, 97).
c(36, 169).
c(36, 42).
c(36, 273).
c(36, 308).
c(37, 194).
c(37, 199).
c(37, 208).
c(37, 401).
c(37, 185).
c(38, 225).
c(38, 228).
c(38, 230).
c(38, 212).
c(38, 318).
c(39, 34).
c(39, 103).
c(39, 271).
c(39, 184).
c(39, 25).
c(40, 192).
c(40, 162).
c(40, 398).
c(40, 118).
c(40, 150).
c(41, 297).
c(41, 338).
c(41, 212).
c(41, 54).
c(41, 86).
c(42, 106).
c(42, 235).
c(42, 330).
c(42, 186).
c(42, 252).
c(43, 326).
c(43, 230).
c(43, 298).
c(43, 113).
c(43, 341).
c(44, 6).
c(44, 103).
c(44, 84).
c(44, 309).
c(44, 159).
c(45, 293).
c(45, 394).
c(45, 107).
c(45, 110).
c(45, 207).
c(46, 194).
c(46, 226).
c(46, 398).
c(46, 241).
c(46, 351).
c(47, 165).
c(47, 13).
c(47, 399).
c(47, 176).
c(47, 26).
c(48, 65).
c(48, 129).
c(48, 13).
c(48, 243).
c(48, 159).
c(49, 17).
c(49, 20).
c(49, 117).
c(49, 312).
c(49, 350).
c(50, 226).
c(50, 304).
c(50, 380).
c(50, 318).
c(50, 287).
c(51, 34).
c(51, 329).
c(51, 369).
c(51, 274).
c(51, 379).
c(52, 196).
c(52, 272).
c(52, 274).
c(52, 87).
c(52, 215).
c(53, 259).
c(53, 115).
c(53, 339).
c(53, 212).
c(53, 377).
c(54, 224).
c(54, 1).
c(54, 138).
c(54, 397).
c(54, 54).
c(55, 385).
c(55, 354).
c(55, 202).
c(55, 365).
c(55, 251).
c(56, 4).
c(56, 142).
c(56, 180).
c(56, 25).
c(56, 379).
c(57, 129).
c(57, 167).
c(57, 234).
c(57, 276).
c(57, 217).
c(58, 288).
c(58, 323).
c(58, 177).
c(58, 81).
c(58, 59).
c(59, 40).
c(59, 401).
c(59, 116).
c(59, 216).
c(59, 349).
c(60, 98).
c(60, 110).
c(60, 143).
c(60, 150).
c(60, 380).
c(61, 0).
c(61, 237).
c(61, 142).
c(61, 398).
c(61, 339).
c(62, 202).
c(62, 77).
c(62, 399).
c(62, 87).
c(62, 56).
c(63, 99).
c(63, 40).
c(63, 78).
c(63, 317).
c(63, 383).
c(64, 161).
c(64, 259).
c(64, 326).
c(64, 136).
c(64, 47).
c(65, 192).
c(65, 392).
c(65, 264).
c(65, 185).
c(65, 287).
c(66, 385).
c(66, 259).
c(66, 70).
c(66, 358).
c(66, 175).
c(67, 33).
c(67, 203).
c(67, 209).
c(67, 377).
c(67, 126).
c(68, 67).
c(68, 165).
c(68, 6).
c(68, 300).
c(68, 156).
c(69, 321).
c(69, 293).
c(69, 74).
c(69, 336).
c(69, 248).
c(70, 227).
c(70, 395).
c(70, 334).
c(70, 400).
c(70, 372).
c(71, 227).
c(71, 261).
c(71, 330).
c(71, 372).
c(71, 380).
c(72, 96).
c(72, 98).
c(72, 40).
c(72, 117).
c(72, 375).
c(73, 359).
c(73, 200).
c(73, 303).
c(73, 178).
c(73, 182).
c(74, 352).
c(74, 194).
c(74, 283).
c(74, 179).
c(74, 123).
c(75, 256).
c(75, 193).
c(75, 257).
c(75, 295).
c(75, 220).
c(76, 12).
c(76, 334).
c(76, 373).
c(76, 152).
c(76, 154).
c(77, 353).
c(77, 7).
c(77, 77).
c(77, 16).
c(77, 306).
c(78, 122).
c(78, 44).
c(78, 179).
c(78, 26).
c(78, 127).
c(79, 162).
c(79, 196).
c(79, 393).
c(79, 401).
c(79, 61).
c(80, 99).
c(80, 132).
c(80, 167).
c(80, 138).
c(80, 272).
