subset(1..80).
c(1, 1).
c(1, 2).
c(1, 3).
c(1, 38).
c(1, 74).
c(1, 172).
c(1, 23).
c(2, 33).
c(2, 41).
c(2, 42).
c(2, 174).
c(2, 142).
c(2, 147).
c(2, 85).
c(3, 143).
c(3, 79).
c(3, 115).
c(3, 20).
c(3, 181).
c(3, 124).
c(4, 129).
c(4, 186).
c(4, 185).
c(4, 191).
c(5, 162).
c(5, 68).
c(5, 42).
c(5, 110).
c(5, 22).
c(5, 151).
c(5, 24).
c(6, 7).
c(6, 17).
c(6, 146).
c(6, 81).
c(6, 117).
c(6, 152).
c(7, 193).
c(7, 194).
c(7, 134).
c(7, 84).
c(7, 183).
c(7, 57).
c(8, 198).
c(8, 75).
c(8, 49).
c(8, 18).
c(8, 184).
c(8, 24).
c(9, 65).
c(9, 75).
c(9, 81).
c(9, 115).
c(9, 179).
c(9, 28).
c(9, 63).
c(10, 36).
c(10, 102).
c(10, 7).
c(10, 169).
c(10, 20).
c(10, 24).
c(10, 190).
c(11, 159).
c(11, 94).
c(11, 30).
c(12, 160).
c(12, 195).
c(12, 164).
c(12, 137).
c(12, 173).
c(12, 27).
c(13, 67).
c(13, 196).
c(13, 164).
c(13, 3).
c(13, 184).
c(13, 58).
c(13, 60).
c(14, 140).
c(14, 36).
c(14, 126).
c(15, 104).
c(15, 142).
c(15, 80).
c(15, 147).
c(15, 116).
c(15, 186).
c(15, 59).
c(16, 97).
c(16, 67).
c(16, 45).
c(16, 167).
c(17, 171).
c(17, 80).
c(17, 17).
c(17, 179).
c(17, 186).
c(17, 28).
c(18, 107).
c(18, 117).
c(18, 78).
c(19, 192).
c(19, 112).
c(19, 16).
c(19, 144).
c(19, 148).
c(20, 32).
c(20, 175).
c(20, 47).
c(20, 115).
c(20, 57).
c(20, 125).
c(21, 148).
c(21, 197).
c(21, 134).
c(21, 199).
c(22, 38).
c(22, 167).
c(22, 40).
c(22, 102).
c(22, 178).
c(22, 116).
c(22, 26).
c(23, 134).
c(23, 108).
c(23, 109).
c(23, 83).
c(23, 116).
c(23, 120).
c(23, 88).
c(24, 28).
c(24, 69).
c(24, 167).
c(25, 9).
c(25, 81).
c(25, 150).
c(25, 61).
c(25, 127).
c(26, 130).
c(26, 67).
c(26, 3).
c(26, 197).
c(26, 174).
c(26, 21).
c(27, 96).
c(27, 196).
c(27, 58).
c(27, 198).
c(27, 103).
c(27, 76).
c(27, 26).
c(28, 137).
c(28, 52).
c(28, 69).
c(28, 102).
c(29, 1).
c(29, 3).
c(29, 39).
c(29, 179).
c(29, 180).
c(29, 150).
c(30, 51).
c(30, 83).
c(30, 27).
c(30, 61).
c(31, 72).
c(31, 53).
c(31, 30).
c(32, 96).
c(32, 66).
c(32, 40).
c(32, 175).
c(32, 177).
c(32, 61).
c(33, 16).
c(33, 17).
c(33, 66).
c(33, 158).
c(34, 133).
c(34, 74).
c(34, 171).
c(34, 52).
c(34, 29).
c(35, 165).
c(35, 135).
c(35, 18).
c(35, 61).
c(35, 62).
c(36, 118).
c(36, 19).
c(36, 52).
c(36, 78).
c(37, 130).
c(37, 156).
c(37, 45).
c(38, 155).
c(38, 77).
c(38, 88).
c(38, 187).
c(38, 120).
c(39, 185).
c(39, 91).
c(39, 181).
c(39, 118).
c(40, 160).
c(40, 8).
c(40, 109).
c(40, 54).
c(40, 59).
c(41, 0).
c(41, 12).
c(41, 109).
c(41, 154).
c(41, 127).
c(42, 129).
c(42, 193).
c(42, 10).
c(42, 74).
c(42, 172).
c(42, 155).
c(43, 166).
c(43, 86).
c(43, 119).
c(43, 155).
c(43, 156).
c(43, 63).
c(43, 31).
c(44, 90).
c(44, 51).
c(44, 78).
c(44, 183).
c(45, 103).
c(45, 43).
c(45, 75).
c(45, 77).
c(45, 50).
c(45, 153).
c(45, 94).
c(46, 130).
c(46, 60).
c(46, 50).
c(46, 95).
c(47, 128).
c(47, 162).
c(47, 170).
c(47, 108).
c(47, 174).
c(47, 180).
c(47, 58).
c(48, 186).
c(48, 68).
c(48, 142).
c(49, 169).
c(49, 113).
c(49, 56).
c(49, 24).
c(49, 94).
c(50, 72).
c(50, 115).
c(50, 54).
c(50, 14).
c(51, 64).
c(51, 197).
c(51, 72).
c(51, 19).
c(51, 187).
c(52, 128).
c(52, 170).
c(52, 145).
c(52, 116).
c(52, 52).
c(52, 90).
c(53, 98).
c(53, 164).
c(53, 103).
c(53, 169).
c(53, 183).
c(54, 48).
c(54, 50).
c(54, 118).
c(54, 123).
c(54, 125).
c(55, 140).
c(55, 60).
c(55, 70).
c(56, 134).
c(56, 174).
c(56, 5).
c(56, 22).
c(57, 163).
c(57, 196).
c(57, 36).
c(57, 137).
c(57, 73).
c(57, 88).
c(58, 36).
c(58, 6).
c(58, 134).
c(58, 159).
c(59, 195).
c(59, 110).
c(59, 63).
c(60, 122).
c(60, 140).
c(60, 175).
c(61, 113).
c(61, 86).
c(61, 33).
c(62, 130).
c(62, 29).
c(62, 127).
c(63, 192).
c(63, 38).
c(63, 199).
c(63, 46).
c(63, 81).
c(63, 18).
c(64, 163).
c(64, 136).
c(64, 110).
c(64, 49).
c(64, 56).
c(64, 58).
c(64, 156).
c(65, 45).
c(65, 173).
c(65, 176).
c(65, 112).
c(65, 116).
c(65, 120).
c(65, 127).
c(66, 120).
c(66, 158).
c(66, 63).
c(67, 65).
c(67, 66).
c(67, 100).
c(67, 133).
c(67, 173).
c(67, 187).
c(68, 12).
c(68, 198).
c(68, 111).
c(69, 96).
c(69, 185).
c(69, 18).
c(69, 20).
c(70, 1).
c(70, 132).
c(70, 109).
c(70, 182).
c(71, 184).
c(71, 171).
c(71, 182).
c(72, 4).
c(72, 165).
c(72, 6).
c(72, 145).
c(72, 120).
c(72, 94).
c(73, 64).
c(73, 138).
c(73, 139).
c(73, 13).
c(73, 17).
c(73, 87).
c(73, 152).
c(74, 129).
c(74, 1).
c(74, 199).
c(74, 148).
c(74, 125).
c(75, 168).
c(75, 34).
c(75, 163).
c(75, 174).
c(76, 172).
c(76, 52).
c(76, 76).
c(77, 96).
c(77, 198).
c(77, 138).
c(77, 171).
c(77, 19).
c(78, 5).
c(78, 72).
c(78, 12).
c(78, 173).
c(78, 14).
c(78, 176).
c(79, 193).
c(79, 99).
c(79, 134).
c(79, 123).
c(79, 126).
c(80, 144).
c(80, 122).
c(80, 139).
c(80, 62).
