subset(1..80).
c(1, 104).
c(1, 138).
c(1, 12).
c(1, 90).
c(1, 156).
c(2, 229).
c(2, 9).
c(2, 177).
c(2, 243).
c(2, 213).
c(2, 247).
c(3, 37).
c(3, 7).
c(3, 202).
c(3, 82).
c(3, 153).
c(4, 65).
c(4, 165).
c(4, 47).
c(4, 119).
c(4, 30).
c(4, 127).
c(5, 140).
c(5, 98).
c(5, 50).
c(5, 94).
c(6, 64).
c(6, 192).
c(6, 70).
c(6, 8).
c(6, 149).
c(6, 29).
c(7, 248).
c(7, 75).
c(7, 135).
c(8, 113).
c(8, 134).
c(8, 127).
c(9, 96).
c(9, 67).
c(9, 164).
c(9, 140).
c(9, 238).
c(9, 242).
c(9, 221).
c(10, 192).
c(10, 73).
c(10, 181).
c(10, 237).
c(11, 72).
c(11, 43).
c(11, 11).
c(11, 81).
c(11, 20).
c(11, 59).
c(12, 129).
c(12, 58).
c(12, 137).
c(12, 191).
c(13, 103).
c(13, 110).
c(13, 186).
c(13, 219).
c(13, 159).
c(14, 207).
c(14, 146).
c(14, 83).
c(14, 179).
c(14, 247).
c(14, 218).
c(14, 157).
c(15, 166).
c(15, 112).
c(15, 26).
c(15, 31).
c(15, 222).
c(15, 63).
c(16, 217).
c(16, 92).
c(16, 7).
c(17, 163).
c(17, 166).
c(17, 108).
c(17, 76).
c(17, 143).
c(18, 104).
c(18, 62).
c(18, 130).
c(18, 110).
c(19, 173).
c(19, 237).
c(19, 14).
c(19, 244).
c(19, 52).
c(20, 130).
c(20, 199).
c(20, 175).
c(20, 177).
c(20, 245).
c(20, 151).
c(21, 88).
c(21, 203).
c(21, 188).
c(21, 95).
c(22, 59).
c(22, 114).
c(22, 75).
c(22, 155).
c(23, 205).
c(23, 114).
c(23, 212).
c(23, 180).
c(23, 89).
c(23, 189).
c(24, 102).
c(24, 139).
c(24, 147).
c(24, 52).
c(24, 31).
c(25, 88).
c(25, 107).
c(25, 39).
c(26, 228).
c(26, 134).
c(26, 10).
c(26, 108).
c(26, 204).
c(26, 145).
c(26, 177).
c(27, 40).
c(27, 90).
c(27, 107).
c(27, 220).
c(28, 201).
c(28, 236).
c(28, 44).
c(28, 113).
c(28, 19).
c(28, 116).
c(28, 93).
c(29, 47).
c(29, 177).
c(29, 123).
c(29, 188).
c(29, 93).
c(30, 169).
c(30, 130).
c(30, 27).
c(30, 86).
c(31, 192).
c(31, 3).
c(31, 42).
c(31, 74).
c(31, 244).
c(31, 58).
c(32, 102).
c(32, 199).
c(32, 74).
c(32, 138).
c(32, 31).
c(32, 159).
c(33, 234).
c(33, 140).
c(33, 215).
c(33, 216).
c(33, 190).
c(34, 162).
c(34, 34).
c(34, 81).
c(34, 115).
c(34, 117).
c(34, 28).
c(34, 127).
c(35, 130).
c(35, 226).
c(35, 68).
c(35, 233).
c(35, 10).
c(35, 106).
c(35, 48).
c(36, 161).
c(36, 178).
c(36, 20).
c(36, 245).
c(36, 54).
c(36, 58).
c(37, 131).
c(37, 196).
c(37, 110).
c(37, 81).
c(37, 248).
c(37, 60).
c(37, 61).
c(38, 162).
c(38, 37).
c(38, 43).
c(38, 110).
c(38, 86).
c(38, 188).
c(39, 230).
c(39, 199).
c(39, 105).
c(39, 175).
c(39, 157).
c(39, 30).
c(40, 72).
c(40, 105).
c(40, 170).
c(40, 11).
c(40, 88).
c(40, 158).
c(41, 129).
c(41, 4).
c(41, 238).
c(41, 84).
c(42, 229).
c(42, 102).
c(42, 205).
c(42, 79).
c(42, 20).
c(42, 184).
c(42, 156).
c(43, 98).
c(43, 73).
c(43, 238).
c(43, 113).
c(43, 51).
c(43, 59).
c(44, 162).
c(44, 98).
c(44, 231).
c(44, 11).
c(44, 47).
c(44, 214).
c(45, 0).
c(45, 232).
c(45, 237).
c(45, 22).
c(46, 67).
c(46, 201).
c(46, 10).
c(46, 53).
c(46, 118).
c(46, 55).
c(46, 60).
c(47, 132).
c(47, 229).
c(47, 20).
c(47, 119).
c(47, 247).
c(47, 125).
c(48, 133).
c(48, 174).
c(48, 18).
c(48, 179).
c(48, 117).
c(48, 28).
c(49, 128).
c(49, 9).
c(49, 59).
c(49, 213).
c(50, 194).
c(50, 14).
c(50, 174).
c(50, 245).
c(50, 55).
c(50, 88).
c(50, 93).
c(51, 104).
c(51, 113).
c(51, 3).
c(51, 36).
c(52, 41).
c(52, 211).
c(52, 60).
c(52, 22).
c(53, 51).
c(53, 27).
c(53, 205).
c(54, 70).
c(54, 235).
c(54, 82).
c(54, 148).
c(54, 125).
c(54, 30).
c(55, 192).
c(55, 209).
c(55, 39).
c(56, 4).
c(56, 242).
c(56, 115).
c(56, 149).
c(56, 153).
c(56, 186).
c(56, 222).
c(57, 176).
c(57, 247).
c(57, 47).
c(57, 103).
c(58, 64).
c(58, 78).
c(58, 52).
c(58, 247).
c(58, 91).
c(59, 36).
c(59, 136).
c(59, 236).
c(59, 46).
c(59, 114).
c(59, 156).
c(60, 68).
c(60, 166).
c(60, 244).
c(60, 86).
c(60, 93).
c(61, 224).
c(61, 194).
c(61, 100).
c(61, 45).
c(61, 174).
c(62, 129).
c(62, 10).
c(62, 106).
c(62, 110).
c(62, 189).
c(63, 164).
c(63, 39).
c(63, 52).
c(63, 212).
c(63, 57).
c(63, 122).
c(63, 63).
c(64, 121).
c(64, 67).
c(64, 187).
c(65, 66).
c(65, 105).
c(65, 120).
c(65, 78).
c(65, 248).
c(65, 154).
c(65, 28).
c(66, 216).
c(66, 50).
c(66, 14).
c(67, 65).
c(67, 185).
c(67, 59).
c(68, 152).
c(68, 206).
c(68, 15).
c(69, 160).
c(69, 218).
c(69, 168).
c(70, 57).
c(70, 145).
c(70, 221).
c(70, 215).
c(71, 58).
c(71, 116).
c(71, 151).
c(72, 5).
c(72, 200).
c(72, 109).
c(72, 47).
c(72, 189).
c(72, 62).
c(73, 216).
c(73, 145).
c(73, 100).
c(73, 168).
c(74, 133).
c(74, 74).
c(74, 242).
c(74, 179).
c(74, 55).
c(75, 153).
c(75, 110).
c(75, 215).
c(76, 43).
c(76, 131).
c(76, 205).
c(76, 215).
c(77, 162).
c(77, 4).
c(77, 157).
c(77, 103).
c(78, 41).
c(78, 44).
c(78, 180).
c(78, 149).
c(78, 248).
c(78, 221).
c(78, 127).
c(79, 199).
c(79, 37).
c(79, 30).
c(79, 215).
c(80, 66).
c(80, 136).
c(80, 14).
c(80, 239).
c(80, 83).
c(80, 216).
