vtx(1..90).
edge(1..300).
e(1,1).
e(1,81).
e(2,1).
e(2,19).
e(3,1).
e(3,52).
e(4,1).
e(4,66).
e(5,1).
e(5,87).
e(6,1).
e(6,49).
e(7,2).
e(7,13).
e(8,2).
e(8,16).
e(9,2).
e(9,15).
e(10,3).
e(10,84).
e(11,3).
e(11,73).
e(12,3).
e(12,22).
e(13,3).
e(13,88).
e(14,3).
e(14,64).
e(15,3).
e(15,26).
e(16,3).
e(16,66).
e(17,3).
e(17,55).
e(18,3).
e(18,69).
e(19,3).
e(19,87).
e(20,3).
e(20,38).
e(21,4).
e(21,70).
e(22,4).
e(22,80).
e(23,4).
e(23,78).
e(24,4).
e(24,79).
e(25,4).
e(25,17).
e(26,4).
e(26,65).
e(27,5).
e(27,58).
e(28,5).
e(28,46).
e(29,5).
e(29,88).
e(30,5).
e(30,42).
e(31,5).
e(31,27).
e(32,5).
e(32,8).
e(33,5).
e(33,89).
e(34,5).
e(34,64).
e(35,5).
e(35,83).
e(36,6).
e(36,51).
e(37,6).
e(37,64).
e(38,6).
e(38,17).
e(39,6).
e(39,82).
e(40,6).
e(40,19).
e(41,6).
e(41,52).
e(42,6).
e(42,50).
e(43,6).
e(43,31).
e(44,6).
e(44,32).
e(45,6).
e(45,28).
e(46,6).
e(46,27).
e(47,6).
e(47,7).
e(48,7).
e(48,78).
e(49,8).
e(49,22).
e(50,8).
e(50,47).
e(51,8).
e(51,52).
e(52,8).
e(52,80).
e(53,8).
e(53,85).
e(54,8).
e(54,23).
e(55,8).
e(55,79).
e(56,8).
e(56,55).
e(57,8).
e(57,15).
e(58,8).
e(58,31).
e(59,9).
e(59,90).
e(60,10).
e(60,67).
e(61,10).
e(61,51).
e(62,10).
e(62,84).
e(63,10).
e(63,59).
e(64,10).
e(64,56).
e(65,10).
e(65,40).
e(66,10).
e(66,15).
e(67,10).
e(67,52).
e(68,10).
e(68,64).
e(69,10).
e(69,72).
e(70,11).
e(70,38).
e(71,11).
e(71,88).
e(72,11).
e(72,31).
e(73,11).
e(73,25).
e(74,11).
e(74,66).
e(75,11).
e(75,79).
e(76,11).
e(76,41).
e(77,11).
e(77,18).
e(78,11).
e(78,68).
e(79,11).
e(79,27).
e(80,12).
e(80,72).
e(81,12).
e(81,39).
e(82,12).
e(82,61).
e(83,12).
e(83,64).
e(84,12).
e(84,60).
e(85,12).
e(85,70).
e(86,12).
e(86,28).
e(87,12).
e(87,40).
e(88,12).
e(88,81).
e(89,13).
e(89,81).
e(90,13).
e(90,67).
e(91,13).
e(91,45).
e(92,14).
e(92,50).
e(93,14).
e(93,66).
e(94,14).
e(94,43).
e(95,14).
e(95,29).
e(96,14).
e(96,32).
e(97,14).
e(97,77).
e(98,14).
e(98,72).
e(99,14).
e(99,17).
e(100,14).
e(100,69).
e(101,15).
e(101,22).
e(102,15).
e(102,20).
e(103,15).
e(103,23).
e(104,15).
e(104,59).
e(105,15).
e(105,63).
e(106,15).
e(106,66).
e(107,16).
e(107,60).
e(108,16).
e(108,80).
e(109,16).
e(109,69).
e(110,16).
e(110,19).
e(111,17).
e(111,28).
e(112,17).
e(112,52).
e(113,17).
e(113,35).
e(114,17).
e(114,78).
e(115,17).
e(115,40).
e(116,17).
e(116,46).
e(117,18).
e(117,61).
e(118,18).
e(118,51).
e(119,18).
e(119,40).
e(120,19).
e(120,82).
e(121,19).
e(121,77).
e(122,19).
e(122,32).
e(123,19).
e(123,66).
e(124,19).
e(124,37).
e(125,19).
e(125,72).
e(126,19).
e(126,86).
e(127,20).
e(127,57).
e(128,20).
e(128,58).
e(129,20).
e(129,26).
e(130,20).
e(130,72).
e(131,21).
e(131,39).
e(132,21).
e(132,35).
e(133,21).
e(133,71).
e(134,21).
e(134,58).
e(135,21).
e(135,37).
e(136,21).
e(136,76).
e(137,21).
e(137,53).
e(138,22).
e(138,78).
e(139,22).
e(139,65).
e(140,22).
e(140,39).
e(141,22).
e(141,23).
e(142,23).
e(142,39).
e(143,23).
e(143,40).
e(144,23).
e(144,33).
e(145,23).
e(145,37).
e(146,23).
e(146,26).
e(147,24).
e(147,67).
e(148,24).
e(148,56).
e(149,25).
e(149,59).
e(150,25).
e(150,83).
e(151,25).
e(151,48).
e(152,25).
e(152,45).
e(153,26).
e(153,41).
e(154,26).
e(154,52).
e(155,26).
e(155,89).
e(156,26).
e(156,71).
e(157,26).
e(157,76).
e(158,27).
e(158,47).
e(159,27).
e(159,28).
e(160,27).
e(160,82).
e(161,27).
e(161,41).
e(162,28).
e(162,89).
e(163,28).
e(163,65).
e(164,28).
e(164,69).
e(165,29).
e(165,44).
e(166,29).
e(166,88).
e(167,29).
e(167,77).
e(168,29).
e(168,58).
e(169,29).
e(169,55).
e(170,30).
e(170,77).
e(171,30).
e(171,40).
e(172,30).
e(172,31).
e(173,30).
e(173,62).
e(174,31).
e(174,32).
e(175,31).
e(175,49).
e(176,31).
e(176,74).
e(177,32).
e(177,81).
e(178,32).
e(178,78).
e(179,32).
e(179,40).
e(180,33).
e(180,42).
e(181,33).
e(181,60).
e(182,33).
e(182,84).
e(183,33).
e(183,56).
e(184,34).
e(184,75).
e(185,34).
e(185,82).
e(186,34).
e(186,71).
e(187,34).
e(187,63).
e(188,34).
e(188,76).
e(189,34).
e(189,40).
e(190,35).
e(190,88).
e(191,35).
e(191,39).
e(192,35).
e(192,49).
e(193,35).
e(193,38).
e(194,35).
e(194,51).
e(195,36).
e(195,53).
e(196,37).
e(196,38).
e(197,37).
e(197,71).
e(198,37).
e(198,43).
e(199,37).
e(199,76).
e(200,37).
e(200,89).
e(201,38).
e(201,48).
e(202,38).
e(202,66).
e(203,39).
e(203,85).
e(204,40).
e(204,70).
e(205,40).
e(205,87).
e(206,41).
e(206,60).
e(207,41).
e(207,56).
e(208,41).
e(208,71).
e(209,42).
e(209,90).
e(210,42).
e(210,54).
e(211,42).
e(211,62).
e(212,42).
e(212,87).
e(213,43).
e(213,51).
e(214,43).
e(214,63).
e(215,43).
e(215,75).
e(216,44).
e(216,58).
e(217,44).
e(217,71).
e(218,44).
e(218,62).
e(219,44).
e(219,55).
e(220,45).
e(220,51).
e(221,45).
e(221,81).
e(222,45).
e(222,86).
e(223,46).
e(223,50).
e(224,46).
e(224,62).
e(225,46).
e(225,76).
e(226,46).
e(226,53).
e(227,46).
e(227,71).
e(228,47).
e(228,58).
e(229,47).
e(229,54).
e(230,47).
e(230,69).
e(231,48).
e(231,80).
e(232,48).
e(232,49).
e(233,48).
e(233,62).
e(234,48).
e(234,79).
e(235,49).
e(235,87).
e(236,49).
e(236,57).
e(237,50).
e(237,71).
e(238,50).
e(238,68).
e(239,50).
e(239,66).
e(240,51).
e(240,85).
e(241,51).
e(241,61).
e(242,52).
e(242,75).
e(243,52).
e(243,69).
e(244,52).
e(244,84).
e(245,52).
e(245,74).
e(246,53).
e(246,70).
e(247,53).
e(247,54).
e(248,53).
e(248,81).
e(249,53).
e(249,69).
e(250,54).
e(250,56).
e(251,54).
e(251,86).
e(252,55).
e(252,89).
e(253,55).
e(253,76).
e(254,56).
e(254,64).
e(255,56).
e(255,77).
e(256,57).
e(256,85).
e(257,57).
e(257,89).
e(258,58).
e(258,86).
e(259,58).
e(259,65).
e(260,59).
e(260,76).
e(261,59).
e(261,74).
e(262,60).
e(262,79).
e(263,60).
e(263,80).
e(264,60).
e(264,73).
e(265,60).
e(265,83).
e(266,61).
e(266,78).
e(267,61).
e(267,70).
e(268,61).
e(268,62).
e(269,62).
e(269,83).
e(270,63).
e(270,75).
e(271,64).
e(271,79).
e(272,65).
e(272,89).
e(273,66).
e(273,77).
e(274,66).
e(274,87).
e(275,66).
e(275,71).
e(276,67).
e(276,75).
e(277,67).
e(277,90).
e(278,68).
e(278,75).
e(279,68).
e(279,73).
e(280,68).
e(280,76).
e(281,69).
e(281,75).
e(282,69).
e(282,72).
e(283,70).
e(283,77).
e(284,70).
e(284,88).
e(285,70).
e(285,76).
e(286,72).
e(286,76).
e(287,73).
e(287,78).
e(288,73).
e(288,82).
e(289,73).
e(289,86).
e(290,74).
e(290,81).
e(291,75).
e(291,82).
e(292,75).
e(292,77).
e(293,75).
e(293,87).
e(294,78).
e(294,85).
e(295,79).
e(295,84).
e(296,79).
e(296,85).
e(297,79).
e(297,81).
e(298,80).
e(298,84).
e(299,82).
e(299,87).
e(300,85).
e(300,88).
