vtx(1..65).
edge(1..430).
e(1,1).
e(1,34).
e(2,1).
e(2,56).
e(3,1).
e(3,18).
e(4,1).
e(4,37).
e(5,1).
e(5,44).
e(6,1).
e(6,8).
e(7,1).
e(7,25).
e(8,1).
e(8,17).
e(9,1).
e(9,31).
e(10,1).
e(10,10).
e(11,1).
e(11,58).
e(12,1).
e(12,30).
e(13,1).
e(13,15).
e(14,1).
e(14,13).
e(15,1).
e(15,7).
e(16,1).
e(16,52).
e(17,2).
e(17,62).
e(18,2).
e(18,25).
e(19,2).
e(19,32).
e(20,2).
e(20,5).
e(21,2).
e(21,51).
e(22,2).
e(22,48).
e(23,2).
e(23,12).
e(24,2).
e(24,26).
e(25,2).
e(25,7).
e(26,2).
e(26,63).
e(27,2).
e(27,8).
e(28,2).
e(28,61).
e(29,2).
e(29,46).
e(30,2).
e(30,50).
e(31,2).
e(31,36).
e(32,3).
e(32,47).
e(33,3).
e(33,24).
e(34,3).
e(34,26).
e(35,3).
e(35,31).
e(36,3).
e(36,23).
e(37,3).
e(37,4).
e(38,3).
e(38,48).
e(39,3).
e(39,14).
e(40,3).
e(40,32).
e(41,3).
e(41,25).
e(42,3).
e(42,22).
e(43,4).
e(43,9).
e(44,4).
e(44,36).
e(45,4).
e(45,23).
e(46,4).
e(46,49).
e(47,4).
e(47,16).
e(48,5).
e(48,34).
e(49,5).
e(49,13).
e(50,5).
e(50,56).
e(51,5).
e(51,26).
e(52,5).
e(52,19).
e(53,5).
e(53,10).
e(54,5).
e(54,6).
e(55,5).
e(55,65).
e(56,5).
e(56,8).
e(57,5).
e(57,14).
e(58,5).
e(58,45).
e(59,5).
e(59,54).
e(60,5).
e(60,33).
e(61,5).
e(61,30).
e(62,6).
e(62,65).
e(63,6).
e(63,54).
e(64,6).
e(64,21).
e(65,6).
e(65,52).
e(66,6).
e(66,55).
e(67,6).
e(67,16).
e(68,6).
e(68,60).
e(69,6).
e(69,10).
e(70,6).
e(70,64).
e(71,6).
e(71,59).
e(72,6).
e(72,41).
e(73,6).
e(73,42).
e(74,6).
e(74,44).
e(75,6).
e(75,27).
e(76,6).
e(76,56).
e(77,7).
e(77,28).
e(78,7).
e(78,34).
e(79,7).
e(79,48).
e(80,7).
e(80,15).
e(81,7).
e(81,19).
e(82,7).
e(82,62).
e(83,7).
e(83,23).
e(84,8).
e(84,32).
e(85,8).
e(85,21).
e(86,8).
e(86,24).
e(87,8).
e(87,59).
e(88,8).
e(88,57).
e(89,8).
e(89,47).
e(90,8).
e(90,46).
e(91,8).
e(91,26).
e(92,8).
e(92,55).
e(93,8).
e(93,61).
e(94,8).
e(94,36).
e(95,8).
e(95,29).
e(96,8).
e(96,44).
e(97,8).
e(97,52).
e(98,9).
e(98,43).
e(99,9).
e(99,39).
e(100,9).
e(100,49).
e(101,9).
e(101,51).
e(102,9).
e(102,40).
e(103,9).
e(103,19).
e(104,9).
e(104,23).
e(105,9).
e(105,38).
e(106,9).
e(106,56).
e(107,9).
e(107,21).
e(108,9).
e(108,54).
e(109,9).
e(109,25).
e(110,9).
e(110,37).
e(111,10).
e(111,54).
e(112,10).
e(112,36).
e(113,10).
e(113,32).
e(114,10).
e(114,64).
e(115,10).
e(115,37).
e(116,10).
e(116,65).
e(117,10).
e(117,43).
e(118,10).
e(118,14).
e(119,10).
e(119,61).
e(120,10).
e(120,59).
e(121,10).
e(121,34).
e(122,10).
e(122,24).
e(123,10).
e(123,11).
e(124,10).
e(124,44).
e(125,11).
e(125,42).
e(126,11).
e(126,13).
e(127,11).
e(127,40).
e(128,11).
e(128,48).
e(129,11).
e(129,31).
e(130,11).
e(130,15).
e(131,11).
e(131,27).
e(132,11).
e(132,47).
e(133,12).
e(133,42).
e(134,12).
e(134,63).
e(135,12).
e(135,52).
e(136,12).
e(136,34).
e(137,12).
e(137,49).
e(138,12).
e(138,29).
e(139,12).
e(139,23).
e(140,12).
e(140,60).
e(141,12).
e(141,50).
e(142,12).
e(142,32).
e(143,12).
e(143,21).
e(144,12).
e(144,31).
e(145,13).
e(145,28).
e(146,13).
e(146,64).
e(147,13).
e(147,65).
e(148,13).
e(148,29).
e(149,13).
e(149,43).
e(150,13).
e(150,60).
e(151,13).
e(151,52).
e(152,13).
e(152,44).
e(153,13).
e(153,20).
e(154,13).
e(154,18).
e(155,13).
e(155,47).
e(156,13).
e(156,23).
e(157,13).
e(157,50).
e(158,14).
e(158,39).
e(159,14).
e(159,41).
e(160,14).
e(160,20).
e(161,14).
e(161,38).
e(162,14).
e(162,65).
e(163,14).
e(163,21).
e(164,14).
e(164,62).
e(165,14).
e(165,22).
e(166,14).
e(166,50).
e(167,14).
e(167,30).
e(168,14).
e(168,17).
e(169,14).
e(169,58).
e(170,15).
e(170,57).
e(171,15).
e(171,36).
e(172,15).
e(172,30).
e(173,15).
e(173,21).
e(174,15).
e(174,33).
e(175,15).
e(175,22).
e(176,15).
e(176,17).
e(177,16).
e(177,21).
e(178,16).
e(178,53).
e(179,16).
e(179,60).
e(180,16).
e(180,48).
e(181,16).
e(181,40).
e(182,16).
e(182,50).
e(183,17).
e(183,38).
e(184,17).
e(184,41).
e(185,17).
e(185,49).
e(186,17).
e(186,42).
e(187,17).
e(187,44).
e(188,17).
e(188,37).
e(189,17).
e(189,55).
e(190,17).
e(190,31).
e(191,17).
e(191,54).
e(192,17).
e(192,45).
e(193,17).
e(193,30).
e(194,18).
e(194,65).
e(195,18).
e(195,62).
e(196,18).
e(196,25).
e(197,18).
e(197,41).
e(198,18).
e(198,49).
e(199,18).
e(199,24).
e(200,18).
e(200,19).
e(201,18).
e(201,22).
e(202,18).
e(202,37).
e(203,18).
e(203,45).
e(204,18).
e(204,55).
e(205,19).
e(205,56).
e(206,19).
e(206,46).
e(207,19).
e(207,58).
e(208,19).
e(208,37).
e(209,19).
e(209,57).
e(210,19).
e(210,24).
e(211,19).
e(211,36).
e(212,19).
e(212,26).
e(213,19).
e(213,62).
e(214,19).
e(214,38).
e(215,19).
e(215,65).
e(216,19).
e(216,43).
e(217,19).
e(217,48).
e(218,19).
e(218,60).
e(219,19).
e(219,29).
e(220,20).
e(220,22).
e(221,20).
e(221,36).
e(222,20).
e(222,27).
e(223,20).
e(223,53).
e(224,20).
e(224,63).
e(225,20).
e(225,57).
e(226,20).
e(226,60).
e(227,20).
e(227,25).
e(228,20).
e(228,28).
e(229,20).
e(229,24).
e(230,20).
e(230,47).
e(231,20).
e(231,41).
e(232,21).
e(232,38).
e(233,21).
e(233,64).
e(234,21).
e(234,31).
e(235,21).
e(235,53).
e(236,21).
e(236,36).
e(237,21).
e(237,33).
e(238,21).
e(238,52).
e(239,21).
e(239,35).
e(240,21).
e(240,59).
e(241,21).
e(241,43).
e(242,22).
e(242,33).
e(243,22).
e(243,30).
e(244,22).
e(244,38).
e(245,22).
e(245,29).
e(246,22).
e(246,63).
e(247,22).
e(247,31).
e(248,22).
e(248,41).
e(249,22).
e(249,53).
e(250,23).
e(250,65).
e(251,23).
e(251,49).
e(252,23).
e(252,40).
e(253,23).
e(253,38).
e(254,23).
e(254,51).
e(255,23).
e(255,61).
e(256,23).
e(256,44).
e(257,23).
e(257,52).
e(258,24).
e(258,36).
e(259,24).
e(259,38).
e(260,24).
e(260,37).
e(261,24).
e(261,49).
e(262,24).
e(262,42).
e(263,24).
e(263,30).
e(264,24).
e(264,33).
e(265,24).
e(265,58).
e(266,24).
e(266,32).
e(267,24).
e(267,64).
e(268,24).
e(268,39).
e(269,24).
e(269,60).
e(270,24).
e(270,63).
e(271,24).
e(271,48).
e(272,24).
e(272,26).
e(273,24).
e(273,55).
e(274,25).
e(274,32).
e(275,25).
e(275,60).
e(276,25).
e(276,38).
e(277,25).
e(277,58).
e(278,25).
e(278,61).
e(279,25).
e(279,39).
e(280,25).
e(280,31).
e(281,25).
e(281,56).
e(282,26).
e(282,41).
e(283,26).
e(283,44).
e(284,26).
e(284,34).
e(285,26).
e(285,38).
e(286,26).
e(286,30).
e(287,26).
e(287,29).
e(288,26).
e(288,35).
e(289,27).
e(289,35).
e(290,27).
e(290,61).
e(291,27).
e(291,45).
e(292,27).
e(292,29).
e(293,27).
e(293,55).
e(294,27).
e(294,60).
e(295,27).
e(295,49).
e(296,28).
e(296,46).
e(297,28).
e(297,48).
e(298,28).
e(298,32).
e(299,28).
e(299,62).
e(300,28).
e(300,38).
e(301,28).
e(301,47).
e(302,28).
e(302,29).
e(303,29).
e(303,62).
e(304,29).
e(304,33).
e(305,29).
e(305,65).
e(306,29).
e(306,58).
e(307,29).
e(307,64).
e(308,29).
e(308,38).
e(309,30).
e(309,65).
e(310,30).
e(310,42).
e(311,30).
e(311,49).
e(312,30).
e(312,54).
e(313,30).
e(313,59).
e(314,30).
e(314,56).
e(315,30).
e(315,53).
e(316,31).
e(316,50).
e(317,31).
e(317,43).
e(318,31).
e(318,56).
e(319,31).
e(319,51).
e(320,31).
e(320,54).
e(321,31).
e(321,39).
e(322,31).
e(322,35).
e(323,32).
e(323,48).
e(324,32).
e(324,57).
e(325,32).
e(325,52).
e(326,32).
e(326,36).
e(327,33).
e(327,45).
e(328,33).
e(328,48).
e(329,33).
e(329,44).
e(330,33).
e(330,65).
e(331,33).
e(331,43).
e(332,34).
e(332,46).
e(333,34).
e(333,48).
e(334,34).
e(334,43).
e(335,34).
e(335,42).
e(336,34).
e(336,50).
e(337,34).
e(337,51).
e(338,35).
e(338,59).
e(339,35).
e(339,41).
e(340,35).
e(340,51).
e(341,35).
e(341,36).
e(342,35).
e(342,46).
e(343,35).
e(343,65).
e(344,36).
e(344,65).
e(345,36).
e(345,55).
e(346,36).
e(346,61).
e(347,36).
e(347,43).
e(348,36).
e(348,51).
e(349,36).
e(349,52).
e(350,36).
e(350,46).
e(351,37).
e(351,45).
e(352,37).
e(352,54).
e(353,37).
e(353,65).
e(354,37).
e(354,51).
e(355,37).
e(355,59).
e(356,38).
e(356,65).
e(357,38).
e(357,53).
e(358,38).
e(358,47).
e(359,38).
e(359,60).
e(360,39).
e(360,57).
e(361,39).
e(361,64).
e(362,40).
e(362,57).
e(363,40).
e(363,44).
e(364,40).
e(364,53).
e(365,40).
e(365,63).
e(366,41).
e(366,46).
e(367,41).
e(367,42).
e(368,41).
e(368,62).
e(369,41).
e(369,56).
e(370,41).
e(370,59).
e(371,41).
e(371,54).
e(372,41).
e(372,55).
e(373,42).
e(373,64).
e(374,42).
e(374,60).
e(375,42).
e(375,43).
e(376,43).
e(376,47).
e(377,43).
e(377,46).
e(378,43).
e(378,52).
e(379,43).
e(379,64).
e(380,43).
e(380,60).
e(381,44).
e(381,51).
e(382,44).
e(382,54).
e(383,44).
e(383,49).
e(384,44).
e(384,61).
e(385,45).
e(385,62).
e(386,45).
e(386,59).
e(387,45).
e(387,50).
e(388,46).
e(388,48).
e(389,46).
e(389,55).
e(390,46).
e(390,63).
e(391,46).
e(391,52).
e(392,46).
e(392,53).
e(393,47).
e(393,53).
e(394,47).
e(394,55).
e(395,47).
e(395,52).
e(396,47).
e(396,64).
e(397,48).
e(397,64).
e(398,48).
e(398,51).
e(399,48).
e(399,57).
e(400,48).
e(400,59).
e(401,48).
e(401,54).
e(402,48).
e(402,49).
e(403,48).
e(403,56).
e(404,48).
e(404,63).
e(405,49).
e(405,53).
e(406,49).
e(406,52).
e(407,49).
e(407,51).
e(408,50).
e(408,64).
e(409,50).
e(409,53).
e(410,50).
e(410,52).
e(411,51).
e(411,61).
e(412,51).
e(412,58).
e(413,51).
e(413,55).
e(414,51).
e(414,64).
e(415,51).
e(415,56).
e(416,51).
e(416,65).
e(417,54).
e(417,55).
e(418,54).
e(418,58).
e(419,55).
e(419,59).
e(420,55).
e(420,60).
e(421,55).
e(421,65).
e(422,56).
e(422,59).
e(423,57).
e(423,58).
e(424,57).
e(424,63).
e(425,57).
e(425,59).
e(426,58).
e(426,60).
e(427,59).
e(427,60).
e(428,59).
e(428,63).
e(429,59).
e(429,64).
e(430,60).
e(430,61).
