vtx(1..95).
edge(1..250).
e(1,1).
e(1,59).
e(2,1).
e(2,4).
e(3,1).
e(3,74).
e(4,1).
e(4,79).
e(5,1).
e(5,27).
e(6,1).
e(6,71).
e(7,1).
e(7,87).
e(8,1).
e(8,77).
e(9,1).
e(9,78).
e(10,2).
e(10,57).
e(11,2).
e(11,92).
e(12,3).
e(12,62).
e(13,3).
e(13,91).
e(14,3).
e(14,80).
e(15,3).
e(15,94).
e(16,3).
e(16,89).
e(17,4).
e(17,19).
e(18,5).
e(18,76).
e(19,5).
e(19,92).
e(20,5).
e(20,18).
e(21,5).
e(21,72).
e(22,5).
e(22,14).
e(23,6).
e(23,40).
e(24,6).
e(24,64).
e(25,6).
e(25,83).
e(26,6).
e(26,31).
e(27,6).
e(27,7).
e(28,6).
e(28,37).
e(29,6).
e(29,56).
e(30,6).
e(30,38).
e(31,7).
e(31,55).
e(32,7).
e(32,37).
e(33,7).
e(33,11).
e(34,7).
e(34,64).
e(35,7).
e(35,17).
e(36,8).
e(36,79).
e(37,8).
e(37,73).
e(38,8).
e(38,49).
e(39,8).
e(39,68).
e(40,9).
e(40,28).
e(41,9).
e(41,29).
e(42,9).
e(42,37).
e(43,9).
e(43,36).
e(44,9).
e(44,48).
e(45,9).
e(45,16).
e(46,9).
e(46,19).
e(47,10).
e(47,21).
e(48,10).
e(48,67).
e(49,10).
e(49,63).
e(50,10).
e(50,28).
e(51,11).
e(51,23).
e(52,11).
e(52,47).
e(53,12).
e(53,16).
e(54,12).
e(54,84).
e(55,12).
e(55,44).
e(56,12).
e(56,89).
e(57,12).
e(57,60).
e(58,13).
e(58,65).
e(59,13).
e(59,64).
e(60,14).
e(60,39).
e(61,14).
e(61,51).
e(62,14).
e(62,90).
e(63,14).
e(63,34).
e(64,14).
e(64,40).
e(65,14).
e(65,49).
e(66,14).
e(66,30).
e(67,14).
e(67,77).
e(68,15).
e(68,31).
e(69,15).
e(69,24).
e(70,15).
e(70,36).
e(71,16).
e(71,89).
e(72,16).
e(72,69).
e(73,16).
e(73,94).
e(74,16).
e(74,33).
e(75,16).
e(75,87).
e(76,16).
e(76,42).
e(77,16).
e(77,22).
e(78,16).
e(78,17).
e(79,16).
e(79,56).
e(80,17).
e(80,90).
e(81,17).
e(81,86).
e(82,18).
e(82,77).
e(83,18).
e(83,49).
e(84,18).
e(84,92).
e(85,19).
e(85,32).
e(86,19).
e(86,29).
e(87,19).
e(87,74).
e(88,19).
e(88,30).
e(89,19).
e(89,41).
e(90,20).
e(90,29).
e(91,20).
e(91,55).
e(92,20).
e(92,83).
e(93,20).
e(93,48).
e(94,21).
e(94,93).
e(95,21).
e(95,90).
e(96,21).
e(96,22).
e(97,21).
e(97,37).
e(98,21).
e(98,27).
e(99,22).
e(99,39).
e(100,22).
e(100,54).
e(101,22).
e(101,25).
e(102,22).
e(102,67).
e(103,23).
e(103,29).
e(104,24).
e(104,94).
e(105,24).
e(105,89).
e(106,24).
e(106,95).
e(107,24).
e(107,84).
e(108,24).
e(108,32).
e(109,24).
e(109,26).
e(110,24).
e(110,58).
e(111,25).
e(111,84).
e(112,25).
e(112,50).
e(113,25).
e(113,70).
e(114,25).
e(114,82).
e(115,25).
e(115,55).
e(116,26).
e(116,91).
e(117,26).
e(117,72).
e(118,27).
e(118,31).
e(119,27).
e(119,29).
e(120,27).
e(120,71).
e(121,27).
e(121,88).
e(122,27).
e(122,62).
e(123,28).
e(123,91).
e(124,28).
e(124,84).
e(125,28).
e(125,32).
e(126,28).
e(126,92).
e(127,28).
e(127,75).
e(128,29).
e(128,61).
e(129,29).
e(129,80).
e(130,29).
e(130,82).
e(131,29).
e(131,41).
e(132,29).
e(132,74).
e(133,30).
e(133,41).
e(134,30).
e(134,88).
e(135,30).
e(135,95).
e(136,31).
e(136,41).
e(137,32).
e(137,56).
e(138,32).
e(138,59).
e(139,32).
e(139,55).
e(140,32).
e(140,54).
e(141,32).
e(141,51).
e(142,33).
e(142,36).
e(143,33).
e(143,91).
e(144,33).
e(144,69).
e(145,34).
e(145,83).
e(146,34).
e(146,36).
e(147,34).
e(147,42).
e(148,35).
e(148,92).
e(149,35).
e(149,68).
e(150,35).
e(150,55).
e(151,36).
e(151,71).
e(152,36).
e(152,95).
e(153,36).
e(153,48).
e(154,37).
e(154,85).
e(155,37).
e(155,83).
e(156,37).
e(156,77).
e(157,37).
e(157,80).
e(158,38).
e(158,66).
e(159,38).
e(159,65).
e(160,38).
e(160,91).
e(161,39).
e(161,85).
e(162,39).
e(162,61).
e(163,39).
e(163,95).
e(164,40).
e(164,44).
e(165,40).
e(165,87).
e(166,40).
e(166,59).
e(167,40).
e(167,91).
e(168,41).
e(168,42).
e(169,41).
e(169,47).
e(170,41).
e(170,77).
e(171,41).
e(171,95).
e(172,41).
e(172,70).
e(173,41).
e(173,64).
e(174,41).
e(174,94).
e(175,42).
e(175,54).
e(176,42).
e(176,67).
e(177,43).
e(177,94).
e(178,43).
e(178,67).
e(179,43).
e(179,80).
e(180,44).
e(180,89).
e(181,44).
e(181,66).
e(182,44).
e(182,64).
e(183,45).
e(183,83).
e(184,45).
e(184,85).
e(185,45).
e(185,73).
e(186,46).
e(186,87).
e(187,46).
e(187,86).
e(188,47).
e(188,51).
e(189,48).
e(189,94).
e(190,49).
e(190,78).
e(191,51).
e(191,69).
e(192,51).
e(192,87).
e(193,52).
e(193,85).
e(194,52).
e(194,82).
e(195,52).
e(195,55).
e(196,52).
e(196,61).
e(197,53).
e(197,83).
e(198,53).
e(198,69).
e(199,53).
e(199,77).
e(200,54).
e(200,94).
e(201,54).
e(201,67).
e(202,54).
e(202,66).
e(203,55).
e(203,59).
e(204,56).
e(204,74).
e(205,56).
e(205,66).
e(206,57).
e(206,65).
e(207,57).
e(207,91).
e(208,57).
e(208,80).
e(209,58).
e(209,60).
e(210,58).
e(210,85).
e(211,58).
e(211,73).
e(212,59).
e(212,90).
e(213,60).
e(213,68).
e(214,60).
e(214,91).
e(215,61).
e(215,89).
e(216,61).
e(216,63).
e(217,61).
e(217,68).
e(218,61).
e(218,92).
e(219,62).
e(219,75).
e(220,63).
e(220,72).
e(221,63).
e(221,74).
e(222,63).
e(222,89).
e(223,64).
e(223,67).
e(224,65).
e(224,74).
e(225,66).
e(225,79).
e(226,67).
e(226,71).
e(227,67).
e(227,74).
e(228,67).
e(228,73).
e(229,68).
e(229,84).
e(230,68).
e(230,81).
e(231,68).
e(231,69).
e(232,68).
e(232,75).
e(233,69).
e(233,86).
e(234,70).
e(234,79).
e(235,70).
e(235,89).
e(236,71).
e(236,84).
e(237,71).
e(237,77).
e(238,72).
e(238,83).
e(239,72).
e(239,75).
e(240,74).
e(240,75).
e(241,74).
e(241,78).
e(242,77).
e(242,92).
e(243,77).
e(243,91).
e(244,78).
e(244,89).
e(245,79).
e(245,82).
e(246,79).
e(246,92).
e(247,80).
e(247,95).
e(248,84).
e(248,90).
e(249,87).
e(249,94).
e(250,88).
e(250,93).
