vtx(1..95).
edge(1..230).
e(1,1).
e(1,57).
e(2,1).
e(2,77).
e(3,1).
e(3,74).
e(4,1).
e(4,52).
e(5,2).
e(5,74).
e(6,2).
e(6,27).
e(7,3).
e(7,26).
e(8,3).
e(8,80).
e(9,3).
e(9,51).
e(10,3).
e(10,44).
e(11,4).
e(11,44).
e(12,4).
e(12,32).
e(13,4).
e(13,81).
e(14,4).
e(14,87).
e(15,4).
e(15,78).
e(16,4).
e(16,35).
e(17,5).
e(17,69).
e(18,5).
e(18,35).
e(19,5).
e(19,37).
e(20,5).
e(20,88).
e(21,5).
e(21,13).
e(22,5).
e(22,62).
e(23,6).
e(23,50).
e(24,7).
e(24,34).
e(25,7).
e(25,25).
e(26,7).
e(26,84).
e(27,8).
e(27,43).
e(28,8).
e(28,72).
e(29,8).
e(29,79).
e(30,8).
e(30,93).
e(31,9).
e(31,35).
e(32,9).
e(32,45).
e(33,9).
e(33,50).
e(34,10).
e(34,93).
e(35,10).
e(35,50).
e(36,10).
e(36,48).
e(37,11).
e(37,84).
e(38,11).
e(38,63).
e(39,11).
e(39,62).
e(40,11).
e(40,88).
e(41,11).
e(41,22).
e(42,11).
e(42,27).
e(43,11).
e(43,50).
e(44,11).
e(44,80).
e(45,11).
e(45,74).
e(46,11).
e(46,39).
e(47,12).
e(47,93).
e(48,12).
e(48,65).
e(49,12).
e(49,58).
e(50,12).
e(50,88).
e(51,12).
e(51,74).
e(52,12).
e(52,81).
e(53,12).
e(53,66).
e(54,13).
e(54,49).
e(55,13).
e(55,42).
e(56,13).
e(56,74).
e(57,13).
e(57,24).
e(58,14).
e(58,85).
e(59,14).
e(59,88).
e(60,14).
e(60,48).
e(61,14).
e(61,43).
e(62,14).
e(62,51).
e(63,14).
e(63,62).
e(64,15).
e(64,65).
e(65,15).
e(65,70).
e(66,15).
e(66,35).
e(67,15).
e(67,82).
e(68,15).
e(68,44).
e(69,16).
e(69,69).
e(70,16).
e(70,25).
e(71,17).
e(71,22).
e(72,17).
e(72,69).
e(73,17).
e(73,60).
e(74,17).
e(74,95).
e(75,18).
e(75,41).
e(76,18).
e(76,72).
e(77,18).
e(77,54).
e(78,19).
e(78,41).
e(79,19).
e(79,51).
e(80,19).
e(80,67).
e(81,19).
e(81,22).
e(82,19).
e(82,71).
e(83,19).
e(83,46).
e(84,19).
e(84,60).
e(85,20).
e(85,59).
e(86,20).
e(86,24).
e(87,20).
e(87,25).
e(88,20).
e(88,44).
e(89,20).
e(89,53).
e(90,20).
e(90,34).
e(91,21).
e(91,86).
e(92,22).
e(92,78).
e(93,22).
e(93,64).
e(94,23).
e(94,57).
e(95,23).
e(95,74).
e(96,24).
e(96,31).
e(97,24).
e(97,56).
e(98,24).
e(98,77).
e(99,24).
e(99,45).
e(100,24).
e(100,33).
e(101,24).
e(101,50).
e(102,24).
e(102,75).
e(103,25).
e(103,92).
e(104,25).
e(104,49).
e(105,26).
e(105,75).
e(106,26).
e(106,73).
e(107,27).
e(107,91).
e(108,27).
e(108,52).
e(109,27).
e(109,89).
e(110,28).
e(110,39).
e(111,28).
e(111,61).
e(112,28).
e(112,57).
e(113,28).
e(113,44).
e(114,28).
e(114,89).
e(115,29).
e(115,83).
e(116,29).
e(116,79).
e(117,29).
e(117,81).
e(118,29).
e(118,56).
e(119,30).
e(119,60).
e(120,30).
e(120,51).
e(121,30).
e(121,64).
e(122,30).
e(122,43).
e(123,30).
e(123,41).
e(124,31).
e(124,39).
e(125,32).
e(125,65).
e(126,32).
e(126,41).
e(127,33).
e(127,79).
e(128,33).
e(128,42).
e(129,34).
e(129,60).
e(130,34).
e(130,50).
e(131,34).
e(131,71).
e(132,34).
e(132,86).
e(133,35).
e(133,87).
e(134,35).
e(134,61).
e(135,35).
e(135,55).
e(136,35).
e(136,52).
e(137,35).
e(137,73).
e(138,35).
e(138,56).
e(139,36).
e(139,75).
e(140,37).
e(140,66).
e(141,37).
e(141,67).
e(142,37).
e(142,95).
e(143,37).
e(143,58).
e(144,37).
e(144,50).
e(145,37).
e(145,45).
e(146,38).
e(146,69).
e(147,38).
e(147,93).
e(148,38).
e(148,60).
e(149,39).
e(149,88).
e(150,39).
e(150,46).
e(151,39).
e(151,93).
e(152,40).
e(152,79).
e(153,40).
e(153,87).
e(154,40).
e(154,63).
e(155,40).
e(155,81).
e(156,40).
e(156,44).
e(157,41).
e(157,76).
e(158,41).
e(158,44).
e(159,42).
e(159,50).
e(160,43).
e(160,95).
e(161,43).
e(161,80).
e(162,44).
e(162,56).
e(163,44).
e(163,50).
e(164,45).
e(164,81).
e(165,45).
e(165,61).
e(166,45).
e(166,90).
e(167,45).
e(167,74).
e(168,46).
e(168,89).
e(169,46).
e(169,51).
e(170,46).
e(170,48).
e(171,46).
e(171,67).
e(172,47).
e(172,91).
e(173,47).
e(173,57).
e(174,48).
e(174,88).
e(175,48).
e(175,70).
e(176,48).
e(176,83).
e(177,49).
e(177,68).
e(178,49).
e(178,73).
e(179,49).
e(179,86).
e(180,49).
e(180,56).
e(181,50).
e(181,55).
e(182,50).
e(182,82).
e(183,51).
e(183,79).
e(184,51).
e(184,78).
e(185,52).
e(185,87).
e(186,52).
e(186,66).
e(187,53).
e(187,83).
e(188,54).
e(188,74).
e(189,54).
e(189,64).
e(190,54).
e(190,72).
e(191,54).
e(191,85).
e(192,54).
e(192,94).
e(193,54).
e(193,91).
e(194,55).
e(194,77).
e(195,56).
e(195,94).
e(196,56).
e(196,74).
e(197,56).
e(197,67).
e(198,57).
e(198,88).
e(199,58).
e(199,76).
e(200,58).
e(200,62).
e(201,58).
e(201,94).
e(202,59).
e(202,65).
e(203,60).
e(203,88).
e(204,61).
e(204,62).
e(205,61).
e(205,94).
e(206,61).
e(206,90).
e(207,62).
e(207,70).
e(208,62).
e(208,69).
e(209,62).
e(209,82).
e(210,64).
e(210,73).
e(211,65).
e(211,71).
e(212,65).
e(212,83).
e(213,67).
e(213,68).
e(214,70).
e(214,79).
e(215,70).
e(215,87).
e(216,72).
e(216,78).
e(217,72).
e(217,84).
e(218,73).
e(218,83).
e(219,74).
e(219,92).
e(220,75).
e(220,91).
e(221,76).
e(221,94).
e(222,77).
e(222,92).
e(223,77).
e(223,84).
e(224,77).
e(224,88).
e(225,79).
e(225,84).
e(226,81).
e(226,88).
e(227,82).
e(227,93).
e(228,83).
e(228,92).
e(229,90).
e(229,93).
e(230,92).
e(230,94).
