vtx(1..95).
edge(1..235).
e(1,1).
e(1,28).
e(2,1).
e(2,24).
e(3,2).
e(3,40).
e(4,2).
e(4,45).
e(5,2).
e(5,10).
e(6,2).
e(6,95).
e(7,3).
e(7,40).
e(8,3).
e(8,72).
e(9,3).
e(9,71).
e(10,3).
e(10,58).
e(11,3).
e(11,5).
e(12,3).
e(12,61).
e(13,4).
e(13,71).
e(14,4).
e(14,35).
e(15,4).
e(15,78).
e(16,4).
e(16,5).
e(17,5).
e(17,69).
e(18,5).
e(18,34).
e(19,5).
e(19,68).
e(20,5).
e(20,61).
e(21,5).
e(21,20).
e(22,5).
e(22,57).
e(23,6).
e(23,17).
e(24,6).
e(24,29).
e(25,6).
e(25,53).
e(26,7).
e(26,34).
e(27,7).
e(27,53).
e(28,7).
e(28,83).
e(29,7).
e(29,78).
e(30,8).
e(30,19).
e(31,8).
e(31,72).
e(32,8).
e(32,88).
e(33,8).
e(33,34).
e(34,8).
e(34,78).
e(35,8).
e(35,30).
e(36,8).
e(36,47).
e(37,9).
e(37,89).
e(38,9).
e(38,53).
e(39,10).
e(39,60).
e(40,10).
e(40,67).
e(41,10).
e(41,16).
e(42,10).
e(42,74).
e(43,10).
e(43,17).
e(44,10).
e(44,83).
e(45,10).
e(45,42).
e(46,10).
e(46,95).
e(47,11).
e(47,30).
e(48,11).
e(48,69).
e(49,11).
e(49,32).
e(50,11).
e(50,94).
e(51,11).
e(51,89).
e(52,11).
e(52,21).
e(53,11).
e(53,85).
e(54,12).
e(54,44).
e(55,12).
e(55,75).
e(56,12).
e(56,79).
e(57,12).
e(57,82).
e(58,12).
e(58,45).
e(59,13).
e(59,18).
e(60,13).
e(60,73).
e(61,14).
e(61,95).
e(62,14).
e(62,17).
e(63,14).
e(63,21).
e(64,15).
e(64,77).
e(65,15).
e(65,58).
e(66,15).
e(66,86).
e(67,15).
e(67,92).
e(68,16).
e(68,77).
e(69,16).
e(69,21).
e(70,16).
e(70,68).
e(71,16).
e(71,18).
e(72,16).
e(72,75).
e(73,16).
e(73,19).
e(74,16).
e(74,59).
e(75,16).
e(75,92).
e(76,17).
e(76,22).
e(77,17).
e(77,20).
e(78,17).
e(78,67).
e(79,17).
e(79,27).
e(80,17).
e(80,76).
e(81,17).
e(81,77).
e(82,17).
e(82,81).
e(83,18).
e(83,25).
e(84,18).
e(84,81).
e(85,18).
e(85,22).
e(86,18).
e(86,49).
e(87,18).
e(87,43).
e(88,18).
e(88,92).
e(89,19).
e(89,26).
e(90,19).
e(90,59).
e(91,19).
e(91,63).
e(92,20).
e(92,38).
e(93,20).
e(93,67).
e(94,20).
e(94,23).
e(95,20).
e(95,26).
e(96,21).
e(96,77).
e(97,21).
e(97,32).
e(98,21).
e(98,70).
e(99,21).
e(99,31).
e(100,22).
e(100,63).
e(101,22).
e(101,30).
e(102,22).
e(102,41).
e(103,22).
e(103,86).
e(104,23).
e(104,69).
e(105,23).
e(105,49).
e(106,24).
e(106,76).
e(107,24).
e(107,88).
e(108,24).
e(108,64).
e(109,24).
e(109,38).
e(110,24).
e(110,27).
e(111,25).
e(111,70).
e(112,25).
e(112,43).
e(113,25).
e(113,60).
e(114,25).
e(114,31).
e(115,26).
e(115,38).
e(116,26).
e(116,76).
e(117,26).
e(117,48).
e(118,26).
e(118,70).
e(119,26).
e(119,47).
e(120,27).
e(120,74).
e(121,27).
e(121,61).
e(122,27).
e(122,72).
e(123,27).
e(123,28).
e(124,27).
e(124,57).
e(125,28).
e(125,31).
e(126,28).
e(126,57).
e(127,28).
e(127,75).
e(128,28).
e(128,45).
e(129,28).
e(129,29).
e(130,29).
e(130,95).
e(131,30).
e(131,60).
e(132,30).
e(132,35).
e(133,30).
e(133,37).
e(134,30).
e(134,64).
e(135,31).
e(135,40).
e(136,31).
e(136,54).
e(137,31).
e(137,66).
e(138,31).
e(138,78).
e(139,32).
e(139,94).
e(140,32).
e(140,71).
e(141,32).
e(141,50).
e(142,32).
e(142,44).
e(143,33).
e(143,73).
e(144,34).
e(144,69).
e(145,34).
e(145,39).
e(146,34).
e(146,49).
e(147,34).
e(147,58).
e(148,35).
e(148,56).
e(149,35).
e(149,45).
e(150,35).
e(150,43).
e(151,35).
e(151,89).
e(152,36).
e(152,50).
e(153,36).
e(153,86).
e(154,37).
e(154,70).
e(155,37).
e(155,41).
e(156,37).
e(156,71).
e(157,38).
e(157,64).
e(158,38).
e(158,57).
e(159,38).
e(159,71).
e(160,38).
e(160,86).
e(161,39).
e(161,84).
e(162,40).
e(162,77).
e(163,41).
e(163,71).
e(164,42).
e(164,59).
e(165,43).
e(165,84).
e(166,44).
e(166,60).
e(167,44).
e(167,61).
e(168,45).
e(168,60).
e(169,46).
e(169,47).
e(170,46).
e(170,71).
e(171,46).
e(171,50).
e(172,46).
e(172,84).
e(173,47).
e(173,58).
e(174,47).
e(174,71).
e(175,47).
e(175,49).
e(176,48).
e(176,88).
e(177,48).
e(177,58).
e(178,49).
e(178,78).
e(179,49).
e(179,53).
e(180,50).
e(180,53).
e(181,50).
e(181,67).
e(182,50).
e(182,73).
e(183,50).
e(183,82).
e(184,51).
e(184,81).
e(185,51).
e(185,59).
e(186,51).
e(186,87).
e(187,51).
e(187,91).
e(188,52).
e(188,67).
e(189,53).
e(189,70).
e(190,53).
e(190,62).
e(191,54).
e(191,60).
e(192,54).
e(192,92).
e(193,55).
e(193,63).
e(194,56).
e(194,64).
e(195,56).
e(195,75).
e(196,57).
e(196,66).
e(197,57).
e(197,62).
e(198,61).
e(198,85).
e(199,62).
e(199,65).
e(200,63).
e(200,70).
e(201,63).
e(201,91).
e(202,63).
e(202,72).
e(203,63).
e(203,89).
e(204,63).
e(204,82).
e(205,64).
e(205,92).
e(206,64).
e(206,74).
e(207,64).
e(207,67).
e(208,65).
e(208,88).
e(209,66).
e(209,90).
e(210,67).
e(210,68).
e(211,67).
e(211,90).
e(212,67).
e(212,76).
e(213,67).
e(213,79).
e(214,68).
e(214,85).
e(215,68).
e(215,87).
e(216,72).
e(216,78).
e(217,72).
e(217,88).
e(218,72).
e(218,84).
e(219,72).
e(219,94).
e(220,72).
e(220,79).
e(221,73).
e(221,83).
e(222,73).
e(222,93).
e(223,74).
e(223,87).
e(224,74).
e(224,93).
e(225,78).
e(225,94).
e(226,78).
e(226,86).
e(227,79).
e(227,93).
e(228,79).
e(228,85).
e(229,80).
e(229,89).
e(230,81).
e(230,82).
e(231,83).
e(231,84).
e(232,86).
e(232,93).
e(233,87).
e(233,91).
e(234,89).
e(234,92).
e(235,91).
e(235,93).
