vtx(1..95).
edge(1..240).
e(1,1).
e(1,78).
e(2,1).
e(2,95).
e(3,1).
e(3,77).
e(4,1).
e(4,59).
e(5,1).
e(5,54).
e(6,1).
e(6,14).
e(7,1).
e(7,5).
e(8,2).
e(8,45).
e(9,2).
e(9,13).
e(10,2).
e(10,43).
e(11,2).
e(11,33).
e(12,2).
e(12,21).
e(13,2).
e(13,8).
e(14,2).
e(14,92).
e(15,3).
e(15,68).
e(16,3).
e(16,46).
e(17,3).
e(17,15).
e(18,3).
e(18,4).
e(19,4).
e(19,7).
e(20,4).
e(20,73).
e(21,4).
e(21,58).
e(22,4).
e(22,90).
e(23,4).
e(23,93).
e(24,4).
e(24,67).
e(25,4).
e(25,72).
e(26,4).
e(26,34).
e(27,5).
e(27,28).
e(28,5).
e(28,40).
e(29,5).
e(29,63).
e(30,6).
e(30,90).
e(31,6).
e(31,15).
e(32,6).
e(32,89).
e(33,6).
e(33,13).
e(34,6).
e(34,40).
e(35,7).
e(35,39).
e(36,7).
e(36,88).
e(37,7).
e(37,51).
e(38,7).
e(38,69).
e(39,7).
e(39,56).
e(40,7).
e(40,64).
e(41,8).
e(41,23).
e(42,8).
e(42,22).
e(43,8).
e(43,75).
e(44,8).
e(44,91).
e(45,9).
e(45,73).
e(46,9).
e(46,85).
e(47,9).
e(47,15).
e(48,9).
e(48,45).
e(49,10).
e(49,79).
e(50,10).
e(50,24).
e(51,10).
e(51,12).
e(52,10).
e(52,16).
e(53,11).
e(53,58).
e(54,11).
e(54,79).
e(55,11).
e(55,26).
e(56,11).
e(56,36).
e(57,11).
e(57,33).
e(58,11).
e(58,35).
e(59,12).
e(59,35).
e(60,12).
e(60,50).
e(61,12).
e(61,66).
e(62,12).
e(62,43).
e(63,12).
e(63,76).
e(64,12).
e(64,55).
e(65,13).
e(65,42).
e(66,13).
e(66,95).
e(67,13).
e(67,79).
e(68,13).
e(68,63).
e(69,13).
e(69,87).
e(70,13).
e(70,53).
e(71,14).
e(71,42).
e(72,14).
e(72,75).
e(73,14).
e(73,65).
e(74,14).
e(74,76).
e(75,14).
e(75,22).
e(76,14).
e(76,69).
e(77,14).
e(77,28).
e(78,14).
e(78,38).
e(79,15).
e(79,73).
e(80,15).
e(80,66).
e(81,15).
e(81,50).
e(82,15).
e(82,29).
e(83,15).
e(83,84).
e(84,15).
e(84,94).
e(85,15).
e(85,57).
e(86,16).
e(86,88).
e(87,17).
e(87,67).
e(88,17).
e(88,87).
e(89,17).
e(89,64).
e(90,18).
e(90,86).
e(91,18).
e(91,77).
e(92,18).
e(92,39).
e(93,18).
e(93,45).
e(94,18).
e(94,30).
e(95,18).
e(95,53).
e(96,18).
e(96,94).
e(97,19).
e(97,29).
e(98,19).
e(98,60).
e(99,19).
e(99,66).
e(100,20).
e(100,75).
e(101,20).
e(101,44).
e(102,20).
e(102,64).
e(103,20).
e(103,41).
e(104,20).
e(104,74).
e(105,21).
e(105,35).
e(106,21).
e(106,60).
e(107,22).
e(107,56).
e(108,22).
e(108,36).
e(109,22).
e(109,78).
e(110,23).
e(110,79).
e(111,24).
e(111,25).
e(112,24).
e(112,80).
e(113,24).
e(113,49).
e(114,24).
e(114,36).
e(115,24).
e(115,93).
e(116,24).
e(116,31).
e(117,25).
e(117,27).
e(118,26).
e(118,71).
e(119,26).
e(119,32).
e(120,26).
e(120,27).
e(121,26).
e(121,36).
e(122,27).
e(122,70).
e(123,27).
e(123,30).
e(124,27).
e(124,67).
e(125,27).
e(125,37).
e(126,27).
e(126,57).
e(127,27).
e(127,64).
e(128,28).
e(128,47).
e(129,28).
e(129,65).
e(130,28).
e(130,46).
e(131,28).
e(131,81).
e(132,29).
e(132,73).
e(133,29).
e(133,79).
e(134,29).
e(134,81).
e(135,29).
e(135,93).
e(136,29).
e(136,47).
e(137,30).
e(137,57).
e(138,30).
e(138,90).
e(139,30).
e(139,92).
e(140,30).
e(140,63).
e(141,32).
e(141,50).
e(142,32).
e(142,81).
e(143,32).
e(143,60).
e(144,33).
e(144,77).
e(145,33).
e(145,64).
e(146,34).
e(146,61).
e(147,34).
e(147,80).
e(148,34).
e(148,75).
e(149,35).
e(149,39).
e(150,35).
e(150,61).
e(151,35).
e(151,37).
e(152,36).
e(152,48).
e(153,36).
e(153,87).
e(154,36).
e(154,93).
e(155,37).
e(155,68).
e(156,37).
e(156,74).
e(157,37).
e(157,51).
e(158,38).
e(158,82).
e(159,38).
e(159,47).
e(160,39).
e(160,89).
e(161,39).
e(161,45).
e(162,39).
e(162,64).
e(163,39).
e(163,70).
e(164,40).
e(164,55).
e(165,40).
e(165,79).
e(166,40).
e(166,63).
e(167,41).
e(167,82).
e(168,41).
e(168,81).
e(169,42).
e(169,82).
e(170,42).
e(170,68).
e(171,43).
e(171,84).
e(172,43).
e(172,86).
e(173,44).
e(173,45).
e(174,44).
e(174,61).
e(175,44).
e(175,95).
e(176,44).
e(176,79).
e(177,44).
e(177,93).
e(178,45).
e(178,53).
e(179,45).
e(179,66).
e(180,46).
e(180,49).
e(181,46).
e(181,89).
e(182,47).
e(182,92).
e(183,47).
e(183,55).
e(184,48).
e(184,88).
e(185,49).
e(185,56).
e(186,49).
e(186,92).
e(187,49).
e(187,85).
e(188,50).
e(188,82).
e(189,51).
e(189,90).
e(190,51).
e(190,83).
e(191,52).
e(191,73).
e(192,52).
e(192,75).
e(193,52).
e(193,79).
e(194,52).
e(194,84).
e(195,52).
e(195,61).
e(196,53).
e(196,94).
e(197,53).
e(197,67).
e(198,54).
e(198,73).
e(199,54).
e(199,77).
e(200,55).
e(200,69).
e(201,55).
e(201,61).
e(202,55).
e(202,74).
e(203,55).
e(203,84).
e(204,56).
e(204,89).
e(205,56).
e(205,64).
e(206,56).
e(206,61).
e(207,56).
e(207,84).
e(208,57).
e(208,63).
e(209,57).
e(209,75).
e(210,58).
e(210,75).
e(211,58).
e(211,63).
e(212,59).
e(212,93).
e(213,59).
e(213,86).
e(214,60).
e(214,67).
e(215,60).
e(215,83).
e(216,60).
e(216,61).
e(217,61).
e(217,71).
e(218,62).
e(218,78).
e(219,62).
e(219,81).
e(220,64).
e(220,73).
e(221,64).
e(221,94).
e(222,64).
e(222,74).
e(223,67).
e(223,92).
e(224,69).
e(224,74).
e(225,70).
e(225,76).
e(226,71).
e(226,75).
e(227,71).
e(227,91).
e(228,72).
e(228,73).
e(229,74).
e(229,84).
e(230,74).
e(230,95).
e(231,75).
e(231,95).
e(232,76).
e(232,88).
e(233,77).
e(233,89).
e(234,80).
e(234,91).
e(235,81).
e(235,88).
e(236,81).
e(236,92).
e(237,83).
e(237,86).
e(238,84).
e(238,87).
e(239,85).
e(239,87).
e(240,89).
e(240,92).
