vtx(1..90).
edge(1..245).
e(1,1).
e(1,35).
e(2,1).
e(2,62).
e(3,1).
e(3,42).
e(4,1).
e(4,7).
e(5,2).
e(5,26).
e(6,2).
e(6,22).
e(7,2).
e(7,68).
e(8,2).
e(8,79).
e(9,3).
e(9,53).
e(10,3).
e(10,88).
e(11,3).
e(11,15).
e(12,3).
e(12,11).
e(13,3).
e(13,52).
e(14,3).
e(14,7).
e(15,3).
e(15,42).
e(16,3).
e(16,9).
e(17,3).
e(17,84).
e(18,4).
e(18,84).
e(19,4).
e(19,47).
e(20,4).
e(20,81).
e(21,4).
e(21,30).
e(22,4).
e(22,90).
e(23,4).
e(23,21).
e(24,5).
e(24,80).
e(25,5).
e(25,36).
e(26,5).
e(26,7).
e(27,5).
e(27,41).
e(28,5).
e(28,59).
e(29,5).
e(29,52).
e(30,5).
e(30,66).
e(31,5).
e(31,61).
e(32,5).
e(32,67).
e(33,5).
e(33,29).
e(34,6).
e(34,31).
e(35,6).
e(35,69).
e(36,6).
e(36,14).
e(37,6).
e(37,18).
e(38,6).
e(38,61).
e(39,7).
e(39,55).
e(40,7).
e(40,61).
e(41,7).
e(41,72).
e(42,7).
e(42,34).
e(43,7).
e(43,73).
e(44,8).
e(44,80).
e(45,8).
e(45,27).
e(46,8).
e(46,77).
e(47,8).
e(47,38).
e(48,9).
e(48,17).
e(49,9).
e(49,38).
e(50,9).
e(50,67).
e(51,9).
e(51,56).
e(52,9).
e(52,27).
e(53,10).
e(53,64).
e(54,10).
e(54,41).
e(55,10).
e(55,58).
e(56,10).
e(56,18).
e(57,10).
e(57,55).
e(58,10).
e(58,56).
e(59,10).
e(59,63).
e(60,10).
e(60,24).
e(61,11).
e(61,30).
e(62,11).
e(62,56).
e(63,11).
e(63,50).
e(64,11).
e(64,82).
e(65,12).
e(65,75).
e(66,12).
e(66,61).
e(67,12).
e(67,49).
e(68,12).
e(68,26).
e(69,12).
e(69,46).
e(70,12).
e(70,64).
e(71,12).
e(71,72).
e(72,12).
e(72,74).
e(73,12).
e(73,47).
e(74,13).
e(74,87).
e(75,13).
e(75,48).
e(76,13).
e(76,23).
e(77,13).
e(77,17).
e(78,13).
e(78,29).
e(79,13).
e(79,50).
e(80,13).
e(80,20).
e(81,13).
e(81,73).
e(82,13).
e(82,41).
e(83,14).
e(83,37).
e(84,14).
e(84,87).
e(85,14).
e(85,20).
e(86,14).
e(86,41).
e(87,14).
e(87,18).
e(88,14).
e(88,36).
e(89,14).
e(89,29).
e(90,15).
e(90,55).
e(91,15).
e(91,57).
e(92,15).
e(92,56).
e(93,15).
e(93,36).
e(94,15).
e(94,81).
e(95,15).
e(95,58).
e(96,15).
e(96,82).
e(97,15).
e(97,85).
e(98,15).
e(98,60).
e(99,16).
e(99,55).
e(100,16).
e(100,69).
e(101,17).
e(101,76).
e(102,17).
e(102,86).
e(103,17).
e(103,73).
e(104,17).
e(104,37).
e(105,17).
e(105,66).
e(106,17).
e(106,43).
e(107,17).
e(107,67).
e(108,17).
e(108,46).
e(109,17).
e(109,24).
e(110,17).
e(110,78).
e(111,18).
e(111,80).
e(112,18).
e(112,19).
e(113,18).
e(113,46).
e(114,18).
e(114,66).
e(115,19).
e(115,56).
e(116,20).
e(116,39).
e(117,20).
e(117,55).
e(118,20).
e(118,88).
e(119,20).
e(119,79).
e(120,21).
e(120,61).
e(121,21).
e(121,27).
e(122,21).
e(122,63).
e(123,21).
e(123,67).
e(124,21).
e(124,23).
e(125,21).
e(125,88).
e(126,21).
e(126,64).
e(127,22).
e(127,29).
e(128,22).
e(128,79).
e(129,22).
e(129,83).
e(130,22).
e(130,43).
e(131,22).
e(131,44).
e(132,23).
e(132,71).
e(133,23).
e(133,66).
e(134,23).
e(134,51).
e(135,23).
e(135,52).
e(136,24).
e(136,59).
e(137,24).
e(137,61).
e(138,25).
e(138,51).
e(139,25).
e(139,31).
e(140,25).
e(140,59).
e(141,25).
e(141,36).
e(142,25).
e(142,64).
e(143,26).
e(143,35).
e(144,26).
e(144,64).
e(145,27).
e(145,89).
e(146,27).
e(146,85).
e(147,27).
e(147,60).
e(148,27).
e(148,65).
e(149,27).
e(149,63).
e(150,28).
e(150,61).
e(151,28).
e(151,43).
e(152,28).
e(152,76).
e(153,29).
e(153,70).
e(154,29).
e(154,60).
e(155,29).
e(155,79).
e(156,29).
e(156,81).
e(157,30).
e(157,75).
e(158,30).
e(158,78).
e(159,30).
e(159,73).
e(160,30).
e(160,56).
e(161,30).
e(161,82).
e(162,30).
e(162,52).
e(163,30).
e(163,53).
e(164,31).
e(164,58).
e(165,31).
e(165,88).
e(166,32).
e(166,60).
e(167,32).
e(167,82).
e(168,33).
e(168,87).
e(169,33).
e(169,61).
e(170,33).
e(170,44).
e(171,34).
e(171,87).
e(172,34).
e(172,48).
e(173,34).
e(173,85).
e(174,34).
e(174,39).
e(175,35).
e(175,45).
e(176,35).
e(176,70).
e(177,35).
e(177,82).
e(178,36).
e(178,90).
e(179,36).
e(179,55).
e(180,36).
e(180,74).
e(181,37).
e(181,41).
e(182,37).
e(182,68).
e(183,37).
e(183,79).
e(184,37).
e(184,73).
e(185,38).
e(185,39).
e(186,38).
e(186,79).
e(187,39).
e(187,56).
e(188,39).
e(188,55).
e(189,39).
e(189,76).
e(190,39).
e(190,79).
e(191,40).
e(191,75).
e(192,40).
e(192,82).
e(193,40).
e(193,76).
e(194,40).
e(194,52).
e(195,40).
e(195,70).
e(196,40).
e(196,42).
e(197,41).
e(197,64).
e(198,41).
e(198,47).
e(199,41).
e(199,56).
e(200,41).
e(200,44).
e(201,41).
e(201,60).
e(202,42).
e(202,88).
e(203,42).
e(203,48).
e(204,44).
e(204,74).
e(205,45).
e(205,64).
e(206,46).
e(206,62).
e(207,46).
e(207,74).
e(208,46).
e(208,57).
e(209,47).
e(209,61).
e(210,47).
e(210,90).
e(211,48).
e(211,61).
e(212,49).
e(212,58).
e(213,49).
e(213,83).
e(214,50).
e(214,74).
e(215,51).
e(215,86).
e(216,52).
e(216,57).
e(217,53).
e(217,57).
e(218,54).
e(218,72).
e(219,54).
e(219,64).
e(220,55).
e(220,77).
e(221,56).
e(221,81).
e(222,56).
e(222,86).
e(223,56).
e(223,66).
e(224,56).
e(224,85).
e(225,57).
e(225,82).
e(226,58).
e(226,77).
e(227,59).
e(227,75).
e(228,59).
e(228,87).
e(229,59).
e(229,83).
e(230,59).
e(230,68).
e(231,62).
e(231,81).
e(232,63).
e(232,82).
e(233,64).
e(233,75).
e(234,64).
e(234,74).
e(235,67).
e(235,80).
e(236,67).
e(236,74).
e(237,68).
e(237,87).
e(238,70).
e(238,79).
e(239,72).
e(239,90).
e(240,76).
e(240,80).
e(241,78).
e(241,81).
e(242,78).
e(242,86).
e(243,84).
e(243,89).
e(244,85).
e(244,90).
e(245,87).
e(245,89).
