vtx(1..70).
edge(1..110).
e(1,1).
e(1,18).
e(2,2).
e(2,31).
e(3,2).
e(3,17).
e(4,2).
e(4,26).
e(5,2).
e(5,15).
e(6,2).
e(6,29).
e(7,2).
e(7,70).
e(8,3).
e(8,40).
e(9,3).
e(9,26).
e(10,3).
e(10,18).
e(11,3).
e(11,14).
e(12,3).
e(12,36).
e(13,4).
e(13,66).
e(14,5).
e(14,46).
e(15,6).
e(15,18).
e(16,6).
e(16,9).
e(17,6).
e(17,25).
e(18,7).
e(18,58).
e(19,7).
e(19,30).
e(20,8).
e(20,56).
e(21,8).
e(21,17).
e(22,8).
e(22,22).
e(23,8).
e(23,61).
e(24,8).
e(24,54).
e(25,9).
e(25,39).
e(26,9).
e(26,23).
e(27,10).
e(27,53).
e(28,10).
e(28,22).
e(29,10).
e(29,44).
e(30,10).
e(30,43).
e(31,11).
e(31,48).
e(32,11).
e(32,65).
e(33,11).
e(33,45).
e(34,11).
e(34,57).
e(35,12).
e(35,60).
e(36,13).
e(36,50).
e(37,13).
e(37,56).
e(38,13).
e(38,32).
e(39,13).
e(39,31).
e(40,13).
e(40,19).
e(41,13).
e(41,42).
e(42,14).
e(42,16).
e(43,14).
e(43,51).
e(44,15).
e(44,42).
e(45,15).
e(45,38).
e(46,16).
e(46,41).
e(47,16).
e(47,52).
e(48,16).
e(48,34).
e(49,17).
e(49,49).
e(50,18).
e(50,27).
e(51,18).
e(51,59).
e(52,18).
e(52,20).
e(53,18).
e(53,66).
e(54,19).
e(54,31).
e(55,19).
e(55,67).
e(56,19).
e(56,28).
e(57,20).
e(57,68).
e(58,20).
e(58,60).
e(59,21).
e(59,56).
e(60,21).
e(60,35).
e(61,21).
e(61,49).
e(62,21).
e(62,62).
e(63,22).
e(63,46).
e(64,22).
e(64,52).
e(65,22).
e(65,25).
e(66,22).
e(66,23).
e(67,24).
e(67,53).
e(68,25).
e(68,42).
e(69,25).
e(69,48).
e(70,26).
e(70,44).
e(71,28).
e(71,41).
e(72,28).
e(72,43).
e(73,29).
e(73,31).
e(74,29).
e(74,66).
e(75,30).
e(75,69).
e(76,30).
e(76,43).
e(77,31).
e(77,64).
e(78,32).
e(78,59).
e(79,32).
e(79,57).
e(80,33).
e(80,63).
e(81,33).
e(81,67).
e(82,33).
e(82,39).
e(83,33).
e(83,40).
e(84,34).
e(84,43).
e(85,35).
e(85,45).
e(86,35).
e(86,55).
e(87,35).
e(87,67).
e(88,37).
e(88,50).
e(89,39).
e(89,67).
e(90,39).
e(90,45).
e(91,40).
e(91,65).
e(92,40).
e(92,42).
e(93,41).
e(93,50).
e(94,42).
e(94,61).
e(95,43).
e(95,53).
e(96,44).
e(96,48).
e(97,45).
e(97,55).
e(98,45).
e(98,67).
e(99,45).
e(99,64).
e(100,47).
e(100,50).
e(101,48).
e(101,60).
e(102,50).
e(102,65).
e(103,51).
e(103,67).
e(104,51).
e(104,61).
e(105,51).
e(105,54).
e(106,52).
e(106,66).
e(107,52).
e(107,64).
e(108,56).
e(108,57).
e(109,61).
e(109,62).
e(110,67).
e(110,69).
