vtx(1..70).
edge(1..120).
e(1,1).
e(1,24).
e(2,1).
e(2,21).
e(3,1).
e(3,52).
e(4,1).
e(4,58).
e(5,1).
e(5,4).
e(6,2).
e(6,63).
e(7,3).
e(7,48).
e(8,3).
e(8,60).
e(9,4).
e(9,27).
e(10,4).
e(10,47).
e(11,5).
e(11,31).
e(12,5).
e(12,60).
e(13,6).
e(13,43).
e(14,6).
e(14,52).
e(15,6).
e(15,16).
e(16,6).
e(16,69).
e(17,7).
e(17,36).
e(18,7).
e(18,35).
e(19,7).
e(19,50).
e(20,7).
e(20,55).
e(21,7).
e(21,9).
e(22,8).
e(22,23).
e(23,8).
e(23,55).
e(24,9).
e(24,66).
e(25,9).
e(25,45).
e(26,9).
e(26,49).
e(27,10).
e(27,33).
e(28,10).
e(28,47).
e(29,10).
e(29,62).
e(30,11).
e(30,26).
e(31,12).
e(31,56).
e(32,12).
e(32,57).
e(33,12).
e(33,28).
e(34,12).
e(34,15).
e(35,12).
e(35,46).
e(36,12).
e(36,49).
e(37,13).
e(37,64).
e(38,13).
e(38,68).
e(39,14).
e(39,46).
e(40,15).
e(40,18).
e(41,15).
e(41,43).
e(42,15).
e(42,53).
e(43,15).
e(43,59).
e(44,15).
e(44,39).
e(45,16).
e(45,49).
e(46,16).
e(46,25).
e(47,16).
e(47,51).
e(48,17).
e(48,68).
e(49,17).
e(49,57).
e(50,18).
e(50,34).
e(51,18).
e(51,47).
e(52,19).
e(52,41).
e(53,19).
e(53,51).
e(54,19).
e(54,68).
e(55,19).
e(55,45).
e(56,20).
e(56,29).
e(57,20).
e(57,37).
e(58,20).
e(58,22).
e(59,21).
e(59,57).
e(60,21).
e(60,34).
e(61,21).
e(61,54).
e(62,21).
e(62,36).
e(63,22).
e(63,24).
e(64,22).
e(64,27).
e(65,23).
e(65,35).
e(66,23).
e(66,41).
e(67,23).
e(67,31).
e(68,23).
e(68,44).
e(69,23).
e(69,47).
e(70,24).
e(70,43).
e(71,24).
e(71,52).
e(72,24).
e(72,26).
e(73,25).
e(73,53).
e(74,25).
e(74,67).
e(75,25).
e(75,44).
e(76,25).
e(76,52).
e(77,26).
e(77,52).
e(78,26).
e(78,53).
e(79,26).
e(79,27).
e(80,27).
e(80,34).
e(81,28).
e(81,45).
e(82,28).
e(82,41).
e(83,28).
e(83,38).
e(84,30).
e(84,45).
e(85,31).
e(85,55).
e(86,32).
e(86,46).
e(87,32).
e(87,40).
e(88,35).
e(88,64).
e(89,35).
e(89,53).
e(90,36).
e(90,54).
e(91,36).
e(91,70).
e(92,36).
e(92,38).
e(93,36).
e(93,48).
e(94,38).
e(94,66).
e(95,39).
e(95,56).
e(96,39).
e(96,59).
e(97,39).
e(97,70).
e(98,39).
e(98,48).
e(99,41).
e(99,69).
e(100,41).
e(100,50).
e(101,42).
e(101,65).
e(102,42).
e(102,70).
e(103,44).
e(103,53).
e(104,44).
e(104,47).
e(105,45).
e(105,54).
e(106,45).
e(106,60).
e(107,46).
e(107,68).
e(108,46).
e(108,62).
e(109,46).
e(109,61).
e(110,47).
e(110,57).
e(111,50).
e(111,55).
e(112,51).
e(112,54).
e(113,51).
e(113,57).
e(114,53).
e(114,59).
e(115,53).
e(115,58).
e(116,57).
e(116,69).
e(117,58).
e(117,70).
e(118,61).
e(118,63).
e(119,63).
e(119,69).
e(120,68).
e(120,69).
