vtx(1..60).
edge(1..370).
e(1,1).
e(1,14).
e(2,1).
e(2,5).
e(3,1).
e(3,50).
e(4,1).
e(4,22).
e(5,1).
e(5,57).
e(6,1).
e(6,27).
e(7,1).
e(7,4).
e(8,1).
e(8,35).
e(9,1).
e(9,49).
e(10,1).
e(10,15).
e(11,1).
e(11,16).
e(12,2).
e(12,53).
e(13,2).
e(13,55).
e(14,2).
e(14,4).
e(15,2).
e(15,31).
e(16,2).
e(16,5).
e(17,2).
e(17,22).
e(18,2).
e(18,44).
e(19,2).
e(19,30).
e(20,2).
e(20,10).
e(21,2).
e(21,15).
e(22,2).
e(22,19).
e(23,3).
e(23,49).
e(24,3).
e(24,33).
e(25,3).
e(25,51).
e(26,3).
e(26,17).
e(27,3).
e(27,56).
e(28,3).
e(28,40).
e(29,3).
e(29,50).
e(30,3).
e(30,15).
e(31,3).
e(31,34).
e(32,4).
e(32,40).
e(33,4).
e(33,56).
e(34,4).
e(34,47).
e(35,4).
e(35,17).
e(36,4).
e(36,26).
e(37,4).
e(37,51).
e(38,4).
e(38,38).
e(39,4).
e(39,21).
e(40,4).
e(40,34).
e(41,4).
e(41,41).
e(42,4).
e(42,55).
e(43,4).
e(43,13).
e(44,4).
e(44,14).
e(45,4).
e(45,8).
e(46,4).
e(46,31).
e(47,5).
e(47,11).
e(48,5).
e(48,48).
e(49,5).
e(49,31).
e(50,5).
e(50,29).
e(51,5).
e(51,58).
e(52,5).
e(52,50).
e(53,5).
e(53,20).
e(54,5).
e(54,7).
e(55,5).
e(55,46).
e(56,5).
e(56,26).
e(57,5).
e(57,41).
e(58,5).
e(58,10).
e(59,5).
e(59,56).
e(60,6).
e(60,30).
e(61,6).
e(61,53).
e(62,6).
e(62,12).
e(63,6).
e(63,48).
e(64,6).
e(64,42).
e(65,6).
e(65,37).
e(66,6).
e(66,20).
e(67,6).
e(67,59).
e(68,6).
e(68,35).
e(69,6).
e(69,41).
e(70,6).
e(70,10).
e(71,6).
e(71,32).
e(72,7).
e(72,41).
e(73,7).
e(73,29).
e(74,7).
e(74,30).
e(75,7).
e(75,43).
e(76,7).
e(76,14).
e(77,7).
e(77,21).
e(78,8).
e(78,24).
e(79,8).
e(79,22).
e(80,8).
e(80,12).
e(81,8).
e(81,33).
e(82,8).
e(82,21).
e(83,8).
e(83,19).
e(84,8).
e(84,15).
e(85,8).
e(85,48).
e(86,8).
e(86,39).
e(87,8).
e(87,35).
e(88,8).
e(88,51).
e(89,8).
e(89,45).
e(90,9).
e(90,20).
e(91,9).
e(91,39).
e(92,9).
e(92,10).
e(93,9).
e(93,43).
e(94,9).
e(94,41).
e(95,9).
e(95,60).
e(96,9).
e(96,22).
e(97,9).
e(97,13).
e(98,9).
e(98,59).
e(99,9).
e(99,35).
e(100,9).
e(100,21).
e(101,10).
e(101,60).
e(102,10).
e(102,53).
e(103,10).
e(103,35).
e(104,10).
e(104,39).
e(105,10).
e(105,21).
e(106,10).
e(106,24).
e(107,10).
e(107,30).
e(108,10).
e(108,51).
e(109,11).
e(109,28).
e(110,11).
e(110,57).
e(111,11).
e(111,60).
e(112,11).
e(112,23).
e(113,11).
e(113,21).
e(114,11).
e(114,40).
e(115,11).
e(115,20).
e(116,11).
e(116,41).
e(117,11).
e(117,51).
e(118,11).
e(118,49).
e(119,11).
e(119,19).
e(120,11).
e(120,15).
e(121,12).
e(121,30).
e(122,12).
e(122,42).
e(123,12).
e(123,50).
e(124,12).
e(124,48).
e(125,12).
e(125,49).
e(126,12).
e(126,14).
e(127,12).
e(127,24).
e(128,12).
e(128,35).
e(129,13).
e(129,43).
e(130,13).
e(130,49).
e(131,13).
e(131,60).
e(132,13).
e(132,53).
e(133,13).
e(133,50).
e(134,13).
e(134,16).
e(135,13).
e(135,21).
e(136,13).
e(136,29).
e(137,13).
e(137,42).
e(138,13).
e(138,56).
e(139,13).
e(139,59).
e(140,14).
e(140,54).
e(141,14).
e(141,43).
e(142,14).
e(142,31).
e(143,14).
e(143,32).
e(144,14).
e(144,15).
e(145,14).
e(145,20).
e(146,14).
e(146,55).
e(147,14).
e(147,52).
e(148,14).
e(148,27).
e(149,14).
e(149,53).
e(150,14).
e(150,18).
e(151,14).
e(151,44).
e(152,15).
e(152,59).
e(153,15).
e(153,55).
e(154,15).
e(154,52).
e(155,15).
e(155,48).
e(156,15).
e(156,27).
e(157,15).
e(157,40).
e(158,15).
e(158,31).
e(159,15).
e(159,49).
e(160,15).
e(160,56).
e(161,15).
e(161,23).
e(162,16).
e(162,32).
e(163,16).
e(163,23).
e(164,16).
e(164,20).
e(165,16).
e(165,17).
e(166,16).
e(166,34).
e(167,16).
e(167,56).
e(168,16).
e(168,41).
e(169,17).
e(169,42).
e(170,17).
e(170,37).
e(171,17).
e(171,20).
e(172,17).
e(172,54).
e(173,17).
e(173,29).
e(174,17).
e(174,39).
e(175,17).
e(175,58).
e(176,17).
e(176,26).
e(177,17).
e(177,32).
e(178,17).
e(178,19).
e(179,17).
e(179,53).
e(180,17).
e(180,51).
e(181,18).
e(181,34).
e(182,18).
e(182,58).
e(183,18).
e(183,56).
e(184,18).
e(184,48).
e(185,18).
e(185,40).
e(186,18).
e(186,28).
e(187,18).
e(187,50).
e(188,18).
e(188,37).
e(189,18).
e(189,27).
e(190,19).
e(190,44).
e(191,19).
e(191,24).
e(192,19).
e(192,47).
e(193,19).
e(193,20).
e(194,19).
e(194,46).
e(195,19).
e(195,36).
e(196,19).
e(196,30).
e(197,19).
e(197,57).
e(198,20).
e(198,26).
e(199,20).
e(199,53).
e(200,20).
e(200,41).
e(201,20).
e(201,34).
e(202,20).
e(202,32).
e(203,20).
e(203,39).
e(204,20).
e(204,60).
e(205,21).
e(205,49).
e(206,21).
e(206,57).
e(207,21).
e(207,22).
e(208,21).
e(208,46).
e(209,21).
e(209,54).
e(210,21).
e(210,24).
e(211,21).
e(211,39).
e(212,21).
e(212,43).
e(213,21).
e(213,36).
e(214,21).
e(214,37).
e(215,22).
e(215,46).
e(216,22).
e(216,47).
e(217,22).
e(217,23).
e(218,22).
e(218,56).
e(219,22).
e(219,33).
e(220,22).
e(220,54).
e(221,22).
e(221,60).
e(222,23).
e(222,28).
e(223,23).
e(223,46).
e(224,23).
e(224,43).
e(225,23).
e(225,30).
e(226,23).
e(226,33).
e(227,23).
e(227,32).
e(228,23).
e(228,47).
e(229,23).
e(229,51).
e(230,23).
e(230,60).
e(231,23).
e(231,57).
e(232,23).
e(232,36).
e(233,23).
e(233,58).
e(234,24).
e(234,34).
e(235,24).
e(235,29).
e(236,24).
e(236,38).
e(237,24).
e(237,58).
e(238,24).
e(238,36).
e(239,24).
e(239,47).
e(240,25).
e(240,31).
e(241,25).
e(241,49).
e(242,25).
e(242,60).
e(243,25).
e(243,35).
e(244,25).
e(244,57).
e(245,25).
e(245,26).
e(246,25).
e(246,53).
e(247,25).
e(247,38).
e(248,25).
e(248,43).
e(249,25).
e(249,28).
e(250,26).
e(250,28).
e(251,26).
e(251,30).
e(252,26).
e(252,34).
e(253,26).
e(253,58).
e(254,26).
e(254,35).
e(255,26).
e(255,36).
e(256,26).
e(256,54).
e(257,26).
e(257,53).
e(258,27).
e(258,48).
e(259,27).
e(259,36).
e(260,27).
e(260,35).
e(261,27).
e(261,32).
e(262,27).
e(262,33).
e(263,27).
e(263,49).
e(264,28).
e(264,49).
e(265,28).
e(265,47).
e(266,28).
e(266,45).
e(267,28).
e(267,31).
e(268,28).
e(268,51).
e(269,28).
e(269,52).
e(270,28).
e(270,56).
e(271,29).
e(271,54).
e(272,29).
e(272,38).
e(273,29).
e(273,31).
e(274,29).
e(274,45).
e(275,29).
e(275,59).
e(276,30).
e(276,33).
e(277,30).
e(277,58).
e(278,30).
e(278,51).
e(279,30).
e(279,31).
e(280,30).
e(280,42).
e(281,30).
e(281,44).
e(282,31).
e(282,57).
e(283,31).
e(283,34).
e(284,31).
e(284,38).
e(285,31).
e(285,37).
e(286,32).
e(286,45).
e(287,32).
e(287,57).
e(288,32).
e(288,52).
e(289,32).
e(289,47).
e(290,32).
e(290,35).
e(291,32).
e(291,33).
e(292,32).
e(292,42).
e(293,33).
e(293,42).
e(294,33).
e(294,59).
e(295,33).
e(295,46).
e(296,33).
e(296,57).
e(297,33).
e(297,60).
e(298,33).
e(298,37).
e(299,34).
e(299,41).
e(300,34).
e(300,50).
e(301,34).
e(301,55).
e(302,34).
e(302,52).
e(303,35).
e(303,44).
e(304,35).
e(304,59).
e(305,35).
e(305,55).
e(306,35).
e(306,45).
e(307,35).
e(307,47).
e(308,35).
e(308,46).
e(309,35).
e(309,54).
e(310,36).
e(310,45).
e(311,36).
e(311,38).
e(312,36).
e(312,40).
e(313,36).
e(313,56).
e(314,37).
e(314,50).
e(315,37).
e(315,54).
e(316,37).
e(316,51).
e(317,37).
e(317,44).
e(318,37).
e(318,39).
e(319,38).
e(319,46).
e(320,38).
e(320,58).
e(321,38).
e(321,49).
e(322,39).
e(322,55).
e(323,39).
e(323,42).
e(324,39).
e(324,54).
e(325,39).
e(325,58).
e(326,40).
e(326,44).
e(327,40).
e(327,60).
e(328,40).
e(328,42).
e(329,40).
e(329,53).
e(330,40).
e(330,56).
e(331,40).
e(331,46).
e(332,41).
e(332,42).
e(333,41).
e(333,51).
e(334,41).
e(334,55).
e(335,41).
e(335,48).
e(336,42).
e(336,43).
e(337,42).
e(337,59).
e(338,42).
e(338,52).
e(339,42).
e(339,45).
e(340,43).
e(340,50).
e(341,43).
e(341,46).
e(342,43).
e(342,45).
e(343,44).
e(343,46).
e(344,44).
e(344,45).
e(345,44).
e(345,56).
e(346,44).
e(346,52).
e(347,44).
e(347,53).
e(348,44).
e(348,59).
e(349,45).
e(349,59).
e(350,45).
e(350,54).
e(351,45).
e(351,47).
e(352,45).
e(352,49).
e(353,45).
e(353,52).
e(354,46).
e(354,60).
e(355,46).
e(355,56).
e(356,46).
e(356,53).
e(357,46).
e(357,49).
e(358,46).
e(358,47).
e(359,47).
e(359,57).
e(360,47).
e(360,51).
e(361,48).
e(361,57).
e(362,50).
e(362,51).
e(363,50).
e(363,52).
e(364,51).
e(364,57).
e(365,51).
e(365,60).
e(366,52).
e(366,57).
e(367,52).
e(367,55).
e(368,53).
e(368,56).
e(369,53).
e(369,57).
e(370,57).
e(370,59).
