v(0..29).
source(0).
target(29).
e(0, 24, 1000).
e(0, 9, 8000).
e(0, 25, 4000).
e(0, 12, 2000).
e(0, 23, 8000).
e(0, 11, 8000).
e(1, 18, 6000).
e(1, 22, 5000).
e(1, 24, 2000).
e(1, 29, 9000).
e(2, 20, 8000).
e(2, 29, 9000).
e(2, 27, 9000).
e(2, 8, 7000).
e(2, 6, 5000).
e(3, 0, 4000).
e(3, 13, 6000).
e(3, 9, 4000).
e(3, 5, 2000).
e(3, 4, 5000).
e(3, 27, 2000).
e(4, 0, 2000).
e(4, 26, 2000).
e(4, 27, 8000).
e(5, 25, 1000).
e(5, 23, 2000).
e(5, 15, 3000).
e(6, 3, 8000).
e(6, 27, 6000).
e(6, 11, 1000).
e(6, 24, 7000).
e(7, 20, 5000).
e(7, 9, 7000).
e(7, 14, 7000).
e(8, 5, 3000).
e(8, 6, 4000).
e(9, 6, 4000).
e(9, 1, 2000).
e(9, 4, 4000).
e(10, 7, 7000).
e(10, 8, 4000).
e(10, 16, 4000).
e(11, 15, 7000).
e(12, 24, 1000).
e(12, 20, 4000).
e(12, 6, 9000).
e(12, 19, 7000).
e(12, 23, 5000).
e(12, 10, 3000).
e(13, 15, 5000).
e(13, 22, 2000).
e(13, 23, 3000).
e(13, 27, 2000).
e(13, 9, 3000).
e(13, 26, 5000).
e(14, 26, 4000).
e(15, 10, 6000).
e(15, 11, 3000).
e(15, 17, 6000).
e(16, 15, 1000).
e(16, 22, 7000).
e(16, 6, 4000).
e(16, 7, 6000).
e(16, 2, 7000).
e(16, 29, 5000).
e(17, 2, 9000).
e(17, 10, 2000).
e(17, 3, 9000).
e(17, 20, 5000).
e(17, 18, 2000).
e(17, 9, 7000).
e(17, 22, 3000).
e(18, 0, 2000).
e(18, 29, 6000).
e(18, 9, 4000).
e(19, 25, 9000).
e(19, 2, 2000).
e(19, 0, 6000).
e(19, 24, 8000).
e(19, 20, 3000).
e(20, 11, 5000).
e(20, 29, 4000).
e(20, 2, 4000).
e(20, 13, 4000).
e(21, 22, 8000).
e(21, 19, 2000).
e(21, 24, 4000).
e(21, 18, 5000).
e(21, 23, 2000).
e(21, 8, 5000).
e(22, 0, 4000).
e(22, 6, 5000).
e(22, 18, 7000).
e(22, 21, 8000).
e(23, 22, 3000).
e(23, 8, 7000).
e(23, 20, 4000).
e(24, 23, 9000).
e(24, 17, 2000).
e(24, 12, 9000).
e(24, 21, 5000).
e(24, 9, 3000).
e(25, 16, 9000).
e(25, 21, 4000).
e(25, 20, 2000).
e(25, 24, 8000).
e(25, 19, 1000).
e(26, 10, 7000).
e(26, 22, 8000).
e(27, 11, 5000).
e(27, 13, 4000).
e(27, 0, 7000).
e(28, 10, 8000).
e(28, 5, 3000).
e(28, 9, 5000).
e(28, 11, 2000).
e(28, 18, 1000).
e(29, 12, 7000).
e(29, 7, 3000).
e(29, 3, 5000).
