v(0..29).
source(0).
target(29).
e(0, 11, 5000).
e(0, 15, 3000).
e(0, 8, 9000).
e(0, 19, 6000).
e(0, 12, 8000).
e(0, 13, 8000).
e(1, 4, 8000).
e(1, 10, 9000).
e(1, 25, 6000).
e(1, 7, 2000).
e(1, 24, 1000).
e(2, 23, 2000).
e(2, 9, 8000).
e(2, 1, 9000).
e(3, 21, 6000).
e(4, 20, 4000).
e(4, 19, 6000).
e(4, 10, 4000).
e(5, 28, 7000).
e(5, 21, 7000).
e(5, 12, 6000).
e(6, 4, 6000).
e(6, 16, 9000).
e(6, 24, 1000).
e(6, 26, 4000).
e(6, 15, 3000).
e(7, 16, 8000).
e(7, 10, 6000).
e(7, 11, 4000).
e(8, 19, 8000).
e(8, 20, 1000).
e(8, 27, 3000).
e(8, 2, 2000).
e(9, 16, 9000).
e(9, 10, 4000).
e(9, 1, 6000).
e(9, 8, 8000).
e(9, 21, 7000).
e(9, 13, 1000).
e(10, 29, 5000).
e(10, 11, 7000).
e(10, 18, 1000).
e(11, 22, 2000).
e(11, 15, 1000).
e(11, 27, 4000).
e(11, 24, 7000).
e(11, 29, 9000).
e(12, 28, 5000).
e(12, 5, 3000).
e(12, 27, 5000).
e(13, 1, 8000).
e(13, 6, 1000).
e(13, 21, 9000).
e(13, 16, 9000).
e(14, 21, 8000).
e(14, 23, 7000).
e(14, 25, 1000).
e(15, 5, 7000).
e(15, 26, 2000).
e(16, 24, 6000).
e(16, 2, 9000).
e(16, 3, 1000).
e(17, 19, 2000).
e(17, 5, 9000).
e(17, 12, 8000).
e(17, 14, 4000).
e(18, 1, 5000).
e(18, 20, 6000).
e(18, 25, 2000).
e(18, 23, 3000).
e(19, 22, 8000).
e(19, 26, 3000).
e(20, 26, 9000).
e(20, 13, 7000).
e(20, 0, 9000).
e(20, 12, 5000).
e(20, 29, 6000).
e(21, 14, 9000).
e(21, 8, 6000).
e(21, 6, 4000).
e(22, 8, 3000).
e(22, 16, 4000).
e(22, 26, 1000).
e(22, 13, 4000).
e(23, 9, 9000).
e(23, 22, 4000).
e(23, 4, 6000).
e(23, 24, 7000).
e(23, 15, 9000).
e(23, 17, 1000).
e(24, 4, 3000).
e(25, 14, 3000).
e(25, 24, 8000).
e(25, 17, 5000).
e(25, 23, 3000).
e(25, 9, 5000).
e(26, 14, 7000).
e(26, 0, 1000).
e(26, 17, 7000).
e(26, 20, 7000).
e(26, 9, 2000).
e(27, 4, 9000).
e(27, 15, 4000).
e(27, 3, 3000).
e(27, 19, 8000).
e(28, 5, 7000).
e(28, 4, 3000).
e(28, 12, 8000).
e(29, 4, 5000).
e(29, 17, 3000).
