v(0..29).
source(0).
target(29).
e(0, 10, 3000).
e(0, 28, 5000).
e(0, 17, 1000).
e(0, 23, 4000).
e(1, 20, 2000).
e(1, 28, 9000).
e(1, 2, 3000).
e(1, 4, 6000).
e(2, 19, 1000).
e(2, 14, 8000).
e(2, 4, 1000).
e(3, 1, 4000).
e(3, 4, 3000).
e(4, 1, 9000).
e(4, 18, 5000).
e(4, 15, 1000).
e(4, 23, 4000).
e(4, 5, 4000).
e(4, 9, 6000).
e(5, 9, 7000).
e(5, 6, 1000).
e(5, 20, 9000).
e(5, 1, 7000).
e(6, 18, 1000).
e(6, 13, 2000).
e(6, 29, 4000).
e(6, 4, 9000).
e(6, 23, 4000).
e(7, 6, 8000).
e(7, 14, 2000).
e(7, 18, 9000).
e(7, 2, 8000).
e(7, 23, 4000).
e(7, 1, 5000).
e(8, 0, 9000).
e(8, 13, 3000).
e(8, 10, 3000).
e(9, 12, 3000).
e(9, 4, 4000).
e(9, 16, 2000).
e(9, 3, 8000).
e(9, 26, 2000).
e(9, 5, 6000).
e(9, 13, 1000).
e(10, 7, 6000).
e(10, 28, 9000).
e(10, 1, 7000).
e(11, 24, 5000).
e(11, 5, 5000).
e(11, 23, 1000).
e(11, 22, 3000).
e(12, 15, 2000).
e(12, 6, 6000).
e(12, 7, 5000).
e(12, 2, 7000).
e(12, 8, 8000).
e(12, 29, 5000).
e(12, 3, 7000).
e(12, 5, 4000).
e(13, 27, 6000).
e(13, 22, 7000).
e(13, 10, 2000).
e(13, 19, 5000).
e(13, 1, 1000).
e(14, 8, 2000).
e(14, 20, 4000).
e(15, 18, 8000).
e(15, 5, 3000).
e(15, 12, 5000).
e(15, 29, 4000).
e(16, 23, 5000).
e(16, 0, 3000).
e(16, 17, 2000).
e(16, 5, 8000).
e(16, 4, 4000).
e(17, 22, 5000).
e(17, 21, 1000).
e(17, 8, 6000).
e(17, 26, 3000).
e(17, 16, 9000).
e(17, 18, 4000).
e(17, 1, 2000).
e(17, 0, 7000).
e(18, 6, 6000).
e(18, 28, 9000).
e(18, 5, 4000).
e(19, 21, 1000).
e(19, 12, 8000).
e(19, 16, 8000).
e(20, 12, 8000).
e(20, 22, 9000).
e(20, 3, 9000).
e(20, 15, 7000).
e(21, 27, 3000).
e(21, 16, 4000).
e(21, 12, 9000).
e(21, 17, 1000).
e(22, 19, 2000).
e(22, 4, 8000).
e(22, 12, 2000).
e(23, 28, 9000).
e(23, 13, 7000).
e(24, 13, 6000).
e(24, 23, 2000).
e(24, 1, 8000).
e(24, 5, 9000).
e(24, 18, 7000).
e(24, 3, 9000).
e(25, 15, 3000).
e(25, 23, 3000).
e(25, 28, 3000).
e(25, 0, 2000).
e(26, 8, 5000).
e(26, 29, 4000).
e(26, 13, 8000).
e(27, 6, 5000).
e(28, 10, 8000).
e(28, 7, 9000).
e(29, 14, 6000).
e(29, 12, 1000).
