v(0..29).
source(0).
target(29).
e(0, 20, 7000).
e(0, 29, 1000).
e(0, 25, 5000).
e(0, 23, 1000).
e(0, 15, 8000).
e(0, 24, 3000).
e(0, 28, 6000).
e(0, 9, 4000).
e(0, 17, 2000).
e(1, 24, 3000).
e(1, 0, 9000).
e(1, 15, 3000).
e(1, 28, 4000).
e(2, 21, 8000).
e(2, 5, 4000).
e(2, 14, 8000).
e(3, 6, 3000).
e(3, 26, 5000).
e(3, 19, 6000).
e(3, 21, 4000).
e(3, 29, 6000).
e(3, 2, 8000).
e(4, 23, 5000).
e(4, 3, 4000).
e(4, 9, 4000).
e(5, 19, 5000).
e(5, 25, 6000).
e(5, 24, 3000).
e(6, 21, 6000).
e(7, 15, 4000).
e(7, 0, 3000).
e(7, 27, 7000).
e(7, 29, 5000).
e(7, 9, 5000).
e(7, 1, 8000).
e(7, 3, 9000).
e(8, 19, 1000).
e(8, 28, 2000).
e(8, 22, 1000).
e(8, 15, 9000).
e(8, 6, 1000).
e(8, 0, 8000).
e(9, 18, 3000).
e(9, 13, 2000).
e(10, 0, 6000).
e(10, 28, 6000).
e(10, 8, 3000).
e(10, 6, 1000).
e(11, 26, 5000).
e(11, 0, 4000).
e(11, 18, 4000).
e(11, 4, 8000).
e(11, 13, 4000).
e(11, 5, 3000).
e(12, 26, 9000).
e(12, 16, 1000).
e(13, 16, 1000).
e(13, 18, 7000).
e(13, 7, 2000).
e(14, 27, 2000).
e(14, 18, 1000).
e(14, 5, 8000).
e(14, 24, 5000).
e(14, 26, 8000).
e(15, 7, 1000).
e(15, 21, 4000).
e(16, 18, 6000).
e(16, 28, 6000).
e(16, 19, 2000).
e(16, 2, 9000).
e(17, 6, 6000).
e(17, 23, 8000).
e(17, 22, 5000).
e(17, 10, 1000).
e(17, 21, 7000).
e(17, 3, 2000).
e(17, 18, 5000).
e(18, 10, 1000).
e(18, 24, 9000).
e(18, 6, 5000).
e(18, 12, 6000).
e(18, 21, 4000).
e(19, 9, 5000).
e(19, 12, 2000).
e(19, 17, 1000).
e(19, 23, 4000).
e(20, 10, 9000).
e(20, 28, 8000).
e(20, 16, 7000).
e(20, 2, 8000).
e(21, 17, 3000).
e(21, 26, 4000).
e(21, 11, 3000).
e(22, 14, 1000).
e(22, 10, 1000).
e(22, 16, 8000).
e(23, 26, 8000).
e(23, 7, 8000).
e(23, 27, 4000).
e(24, 19, 2000).
e(24, 18, 5000).
e(24, 12, 4000).
e(24, 6, 1000).
e(24, 17, 6000).
e(25, 0, 8000).
e(26, 29, 2000).
e(27, 9, 5000).
e(27, 7, 4000).
e(27, 28, 2000).
e(28, 11, 7000).
e(28, 17, 1000).
e(28, 23, 1000).
e(28, 14, 5000).
e(28, 25, 5000).
e(28, 10, 6000).
e(29, 9, 1000).
e(29, 21, 4000).
e(29, 17, 1000).
e(29, 13, 5000).
e(29, 2, 7000).
