v(0..29).
source(0).
target(29).
e(0, 10, 1000).
e(0, 29, 9000).
e(0, 13, 1000).
e(1, 23, 7000).
e(1, 4, 9000).
e(2, 16, 3000).
e(2, 24, 5000).
e(2, 18, 8000).
e(2, 8, 9000).
e(2, 14, 1000).
e(3, 24, 7000).
e(3, 21, 2000).
e(3, 27, 6000).
e(4, 1, 5000).
e(4, 29, 7000).
e(4, 21, 3000).
e(4, 15, 6000).
e(5, 9, 7000).
e(5, 20, 5000).
e(5, 7, 3000).
e(6, 3, 4000).
e(6, 1, 2000).
e(6, 22, 4000).
e(6, 11, 9000).
e(7, 3, 1000).
e(7, 9, 3000).
e(7, 4, 4000).
e(7, 27, 4000).
e(7, 17, 3000).
e(8, 12, 2000).
e(8, 17, 7000).
e(8, 14, 3000).
e(8, 7, 8000).
e(8, 20, 6000).
e(9, 14, 1000).
e(9, 13, 4000).
e(9, 4, 9000).
e(10, 13, 1000).
e(10, 2, 9000).
e(10, 27, 9000).
e(10, 3, 2000).
e(10, 15, 3000).
e(11, 0, 2000).
e(11, 6, 2000).
e(11, 29, 7000).
e(11, 13, 7000).
e(12, 13, 6000).
e(12, 25, 8000).
e(12, 18, 8000).
e(12, 9, 2000).
e(13, 18, 9000).
e(13, 5, 2000).
e(13, 7, 1000).
e(13, 15, 6000).
e(13, 29, 5000).
e(13, 20, 7000).
e(13, 17, 9000).
e(14, 7, 9000).
e(14, 25, 3000).
e(14, 29, 8000).
e(15, 24, 6000).
e(15, 28, 5000).
e(15, 22, 9000).
e(15, 21, 1000).
e(15, 14, 7000).
e(15, 9, 3000).
e(16, 11, 3000).
e(16, 14, 6000).
e(16, 23, 1000).
e(16, 0, 9000).
e(16, 1, 9000).
e(17, 12, 6000).
e(17, 26, 2000).
e(17, 3, 6000).
e(18, 27, 6000).
e(18, 16, 5000).
e(18, 10, 3000).
e(18, 7, 8000).
e(18, 15, 4000).
e(18, 1, 3000).
e(19, 17, 4000).
e(19, 12, 5000).
e(19, 23, 6000).
e(19, 16, 8000).
e(19, 13, 3000).
e(19, 2, 7000).
e(20, 2, 7000).
e(20, 13, 7000).
e(20, 9, 4000).
e(21, 26, 5000).
e(21, 13, 4000).
e(21, 12, 4000).
e(21, 3, 5000).
e(22, 3, 7000).
e(22, 15, 2000).
e(22, 12, 3000).
e(22, 4, 1000).
e(23, 7, 4000).
e(23, 4, 4000).
e(23, 24, 4000).
e(23, 25, 3000).
e(23, 29, 7000).
e(24, 22, 7000).
e(25, 0, 5000).
e(25, 11, 1000).
e(25, 10, 3000).
e(26, 23, 9000).
e(26, 20, 8000).
e(26, 27, 4000).
e(26, 24, 6000).
e(26, 10, 3000).
e(26, 25, 7000).
e(27, 15, 5000).
e(27, 9, 9000).
e(27, 16, 5000).
e(28, 22, 7000).
e(28, 1, 4000).
e(29, 22, 1000).
e(29, 23, 9000).
e(29, 5, 6000).
