v(0..29).
source(0).
target(29).
e(0, 12, 8000).
e(0, 1, 4000).
e(1, 23, 5000).
e(1, 7, 3000).
e(2, 21, 9000).
e(2, 5, 5000).
e(2, 23, 4000).
e(2, 18, 3000).
e(2, 24, 4000).
e(2, 25, 1000).
e(3, 6, 8000).
e(3, 15, 9000).
e(4, 14, 6000).
e(5, 1, 5000).
e(5, 17, 6000).
e(6, 27, 7000).
e(6, 0, 8000).
e(7, 18, 9000).
e(7, 23, 1000).
e(7, 2, 2000).
e(7, 8, 2000).
e(7, 0, 7000).
e(7, 16, 2000).
e(8, 10, 4000).
e(8, 23, 6000).
e(8, 19, 7000).
e(9, 17, 9000).
e(9, 4, 2000).
e(10, 11, 2000).
e(10, 24, 8000).
e(10, 26, 6000).
e(11, 3, 2000).
e(11, 23, 5000).
e(11, 20, 9000).
e(12, 6, 6000).
e(12, 28, 5000).
e(12, 18, 3000).
e(12, 8, 6000).
e(12, 26, 7000).
e(12, 0, 7000).
e(13, 16, 6000).
e(13, 15, 4000).
e(13, 14, 4000).
e(13, 3, 9000).
e(13, 2, 4000).
e(13, 24, 8000).
e(13, 17, 7000).
e(13, 22, 8000).
e(14, 4, 5000).
e(14, 26, 7000).
e(14, 24, 7000).
e(14, 7, 5000).
e(14, 17, 9000).
e(14, 12, 4000).
e(15, 22, 9000).
e(15, 8, 1000).
e(15, 5, 7000).
e(15, 17, 4000).
e(15, 26, 4000).
e(15, 20, 9000).
e(16, 17, 5000).
e(16, 15, 4000).
e(16, 6, 9000).
e(17, 27, 7000).
e(17, 2, 9000).
e(17, 29, 2000).
e(17, 20, 1000).
e(17, 24, 3000).
e(17, 16, 8000).
e(17, 7, 3000).
e(18, 14, 2000).
e(18, 22, 2000).
e(18, 20, 3000).
e(18, 13, 6000).
e(18, 16, 8000).
e(19, 15, 6000).
e(19, 22, 4000).
e(20, 1, 6000).
e(20, 17, 2000).
e(20, 23, 8000).
e(20, 16, 2000).
e(20, 5, 1000).
e(21, 5, 8000).
e(21, 6, 6000).
e(21, 26, 2000).
e(22, 10, 5000).
e(22, 12, 5000).
e(23, 7, 8000).
e(23, 24, 1000).
e(23, 18, 5000).
e(23, 2, 5000).
e(24, 29, 1000).
e(24, 28, 1000).
e(24, 8, 4000).
e(24, 25, 7000).
e(24, 18, 1000).
e(25, 10, 5000).
e(25, 5, 9000).
e(26, 21, 7000).
e(26, 3, 8000).
e(26, 7, 6000).
e(26, 10, 6000).
e(26, 16, 3000).
e(26, 27, 6000).
e(27, 5, 5000).
e(27, 8, 3000).
e(27, 13, 6000).
e(27, 21, 2000).
e(27, 29, 5000).
e(28, 27, 7000).
e(28, 15, 8000).
e(28, 7, 3000).
e(28, 0, 7000).
e(29, 14, 9000).
e(29, 21, 7000).
e(29, 7, 5000).
e(29, 9, 2000).
e(29, 24, 9000).
e(29, 27, 9000).
e(29, 22, 6000).
