v(0..29).
source(0).
target(29).
e(0, 28, 8000).
e(0, 14, 8000).
e(0, 18, 9000).
e(0, 27, 3000).
e(0, 26, 9000).
e(1, 7, 4000).
e(1, 12, 6000).
e(2, 14, 3000).
e(2, 13, 5000).
e(2, 1, 7000).
e(2, 27, 5000).
e(2, 20, 6000).
e(2, 10, 7000).
e(3, 21, 2000).
e(3, 9, 8000).
e(3, 15, 9000).
e(4, 10, 4000).
e(4, 25, 8000).
e(4, 3, 7000).
e(4, 24, 3000).
e(4, 23, 8000).
e(4, 27, 9000).
e(5, 4, 7000).
e(5, 26, 2000).
e(6, 13, 3000).
e(6, 10, 7000).
e(6, 9, 4000).
e(6, 19, 5000).
e(6, 14, 4000).
e(7, 21, 5000).
e(8, 10, 8000).
e(8, 13, 5000).
e(8, 5, 7000).
e(8, 21, 1000).
e(9, 18, 4000).
e(9, 13, 6000).
e(9, 24, 7000).
e(9, 26, 5000).
e(9, 0, 2000).
e(9, 17, 4000).
e(9, 28, 2000).
e(10, 8, 7000).
e(10, 0, 7000).
e(10, 2, 6000).
e(11, 3, 5000).
e(11, 6, 3000).
e(12, 10, 4000).
e(12, 21, 1000).
e(13, 9, 2000).
e(14, 25, 1000).
e(14, 6, 6000).
e(15, 2, 2000).
e(15, 25, 2000).
e(16, 6, 2000).
e(16, 9, 6000).
e(16, 10, 1000).
e(16, 28, 5000).
e(17, 1, 9000).
e(17, 13, 6000).
e(17, 20, 6000).
e(17, 25, 2000).
e(17, 3, 3000).
e(18, 25, 7000).
e(18, 20, 7000).
e(18, 10, 7000).
e(19, 15, 7000).
e(19, 23, 4000).
e(19, 13, 1000).
e(20, 4, 6000).
e(20, 14, 7000).
e(21, 16, 2000).
e(21, 20, 8000).
e(21, 5, 5000).
e(21, 22, 1000).
e(21, 7, 2000).
e(22, 21, 6000).
e(22, 11, 2000).
e(22, 26, 6000).
e(22, 0, 5000).
e(22, 6, 3000).
e(23, 21, 3000).
e(23, 22, 9000).
e(23, 25, 9000).
e(23, 27, 8000).
e(23, 17, 4000).
e(24, 17, 7000).
e(24, 13, 4000).
e(24, 21, 1000).
e(24, 8, 7000).
e(24, 19, 2000).
e(25, 12, 9000).
e(25, 8, 3000).
e(25, 16, 8000).
e(25, 9, 7000).
e(25, 15, 9000).
e(26, 12, 7000).
e(26, 18, 5000).
e(26, 15, 4000).
e(26, 19, 7000).
e(26, 29, 3000).
e(27, 3, 8000).
e(27, 10, 5000).
e(27, 22, 4000).
e(28, 14, 9000).
e(28, 29, 2000).
e(28, 24, 3000).
e(28, 26, 3000).
e(29, 22, 7000).
e(29, 11, 2000).
e(29, 14, 9000).
