v(0..29).
source(0).
target(29).
e(0, 8, 8000).
e(0, 19, 4000).
e(0, 15, 6000).
e(0, 10, 6000).
e(0, 23, 6000).
e(0, 22, 4000).
e(1, 24, 3000).
e(1, 23, 1000).
e(1, 13, 6000).
e(2, 19, 3000).
e(2, 20, 8000).
e(2, 27, 3000).
e(2, 9, 1000).
e(3, 5, 1000).
e(3, 25, 8000).
e(3, 21, 4000).
e(4, 9, 4000).
e(5, 6, 4000).
e(5, 3, 2000).
e(5, 21, 5000).
e(5, 7, 5000).
e(5, 2, 4000).
e(6, 14, 9000).
e(6, 1, 7000).
e(6, 0, 9000).
e(6, 29, 1000).
e(6, 22, 2000).
e(7, 5, 7000).
e(8, 28, 5000).
e(8, 9, 7000).
e(8, 7, 2000).
e(9, 28, 4000).
e(9, 19, 4000).
e(10, 4, 2000).
e(10, 1, 7000).
e(11, 12, 6000).
e(11, 13, 3000).
e(11, 3, 5000).
e(11, 1, 3000).
e(11, 21, 6000).
e(11, 15, 4000).
e(12, 18, 7000).
e(12, 20, 6000).
e(12, 2, 2000).
e(13, 24, 5000).
e(13, 20, 5000).
e(13, 9, 4000).
e(13, 8, 8000).
e(13, 6, 2000).
e(13, 7, 1000).
e(14, 1, 9000).
e(14, 9, 4000).
e(14, 5, 1000).
e(14, 7, 4000).
e(14, 23, 3000).
e(14, 6, 4000).
e(15, 6, 1000).
e(15, 28, 6000).
e(15, 14, 9000).
e(15, 5, 2000).
e(15, 12, 3000).
e(15, 18, 8000).
e(16, 6, 6000).
e(16, 27, 8000).
e(16, 14, 8000).
e(16, 11, 3000).
e(16, 26, 3000).
e(17, 26, 7000).
e(18, 11, 8000).
e(18, 27, 9000).
e(18, 26, 1000).
e(19, 20, 7000).
e(19, 10, 8000).
e(19, 14, 1000).
e(19, 0, 1000).
e(20, 24, 2000).
e(20, 5, 7000).
e(20, 3, 2000).
e(20, 28, 4000).
e(20, 6, 1000).
e(21, 29, 5000).
e(21, 14, 7000).
e(21, 5, 4000).
e(21, 2, 7000).
e(22, 5, 1000).
e(22, 9, 4000).
e(23, 3, 5000).
e(23, 7, 1000).
e(23, 9, 7000).
e(23, 15, 3000).
e(24, 25, 5000).
e(24, 21, 5000).
e(24, 8, 2000).
e(24, 15, 9000).
e(24, 23, 2000).
e(24, 19, 9000).
e(24, 1, 7000).
e(25, 15, 8000).
e(25, 20, 4000).
e(25, 13, 4000).
e(25, 14, 9000).
e(26, 24, 8000).
e(27, 0, 5000).
e(27, 17, 5000).
e(28, 14, 8000).
e(28, 0, 7000).
e(28, 16, 2000).
e(28, 25, 4000).
e(28, 12, 9000).
e(29, 27, 8000).
