v(0..29).
source(0).
target(29).
e(0, 22, 5000).
e(0, 9, 5000).
e(0, 1, 8000).
e(0, 25, 8000).
e(0, 26, 9000).
e(0, 5, 4000).
e(1, 23, 3000).
e(1, 17, 7000).
e(3, 29, 4000).
e(3, 11, 9000).
e(3, 22, 1000).
e(3, 10, 7000).
e(3, 6, 7000).
e(4, 13, 7000).
e(4, 16, 4000).
e(4, 27, 8000).
e(4, 6, 2000).
e(4, 19, 9000).
e(4, 25, 7000).
e(4, 20, 1000).
e(5, 12, 4000).
e(5, 27, 4000).
e(5, 29, 7000).
e(6, 22, 7000).
e(6, 18, 6000).
e(6, 26, 3000).
e(6, 0, 9000).
e(6, 9, 9000).
e(7, 17, 8000).
e(7, 3, 9000).
e(7, 16, 9000).
e(8, 12, 8000).
e(8, 10, 7000).
e(8, 9, 8000).
e(8, 18, 8000).
e(8, 22, 9000).
e(9, 12, 4000).
e(9, 28, 5000).
e(9, 5, 7000).
e(9, 20, 9000).
e(10, 17, 3000).
e(11, 14, 1000).
e(11, 8, 4000).
e(11, 15, 6000).
e(12, 27, 2000).
e(12, 29, 6000).
e(13, 0, 3000).
e(13, 17, 6000).
e(14, 9, 9000).
e(14, 6, 4000).
e(14, 3, 9000).
e(15, 13, 8000).
e(15, 10, 6000).
e(15, 22, 7000).
e(15, 11, 7000).
e(15, 21, 7000).
e(16, 8, 1000).
e(16, 15, 9000).
e(17, 18, 7000).
e(17, 14, 8000).
e(18, 1, 5000).
e(18, 5, 9000).
e(19, 11, 9000).
e(19, 23, 7000).
e(19, 18, 8000).
e(19, 17, 7000).
e(19, 29, 2000).
e(20, 16, 4000).
e(20, 17, 2000).
e(20, 6, 4000).
e(20, 0, 4000).
e(21, 7, 4000).
e(21, 29, 2000).
e(21, 2, 7000).
e(21, 24, 7000).
e(21, 27, 9000).
e(22, 19, 2000).
e(22, 15, 6000).
e(23, 8, 6000).
e(23, 22, 2000).
e(23, 25, 2000).
e(23, 10, 8000).
e(23, 27, 5000).
e(24, 18, 2000).
e(24, 8, 8000).
e(24, 6, 3000).
e(24, 5, 6000).
e(24, 28, 3000).
e(25, 24, 5000).
e(25, 15, 6000).
e(25, 8, 9000).
e(26, 25, 8000).
e(26, 14, 1000).
e(26, 24, 9000).
e(27, 6, 1000).
e(27, 4, 1000).
e(27, 2, 5000).
e(27, 18, 2000).
e(28, 19, 3000).
e(28, 15, 9000).
e(28, 12, 8000).
e(28, 5, 6000).
e(28, 4, 9000).
e(28, 17, 7000).
e(28, 20, 4000).
e(28, 10, 9000).
e(29, 10, 1000).
e(29, 20, 2000).
e(29, 0, 3000).
e(29, 5, 9000).
