v(0..29).
source(0).
target(29).
e(0, 24, 4000).
e(0, 12, 3000).
e(0, 23, 2000).
e(0, 16, 2000).
e(0, 11, 8000).
e(1, 26, 3000).
e(1, 6, 8000).
e(1, 2, 2000).
e(1, 4, 5000).
e(2, 22, 6000).
e(2, 6, 5000).
e(2, 27, 6000).
e(3, 12, 2000).
e(3, 16, 9000).
e(3, 10, 6000).
e(3, 4, 5000).
e(3, 28, 2000).
e(3, 20, 4000).
e(4, 17, 7000).
e(4, 29, 6000).
e(5, 25, 6000).
e(5, 29, 8000).
e(5, 8, 8000).
e(5, 7, 8000).
e(5, 6, 7000).
e(6, 29, 1000).
e(6, 17, 6000).
e(6, 26, 1000).
e(6, 1, 3000).
e(6, 3, 6000).
e(7, 17, 1000).
e(7, 29, 7000).
e(8, 4, 6000).
e(8, 26, 3000).
e(9, 5, 2000).
e(9, 20, 2000).
e(9, 12, 5000).
e(9, 10, 9000).
e(10, 13, 1000).
e(11, 28, 4000).
e(11, 17, 4000).
e(11, 16, 9000).
e(11, 21, 6000).
e(12, 17, 3000).
e(12, 26, 7000).
e(12, 21, 2000).
e(12, 8, 6000).
e(13, 6, 7000).
e(14, 1, 9000).
e(14, 10, 1000).
e(14, 11, 1000).
e(15, 2, 2000).
e(15, 10, 3000).
e(15, 11, 2000).
e(15, 5, 9000).
e(15, 22, 6000).
e(16, 12, 6000).
e(16, 3, 5000).
e(16, 8, 8000).
e(16, 28, 2000).
e(16, 15, 3000).
e(16, 24, 8000).
e(17, 11, 9000).
e(17, 14, 6000).
e(17, 29, 4000).
e(17, 23, 5000).
e(17, 24, 1000).
e(18, 21, 2000).
e(18, 26, 2000).
e(19, 6, 2000).
e(19, 20, 5000).
e(19, 4, 6000).
e(19, 22, 4000).
e(19, 24, 1000).
e(19, 12, 6000).
e(20, 17, 6000).
e(20, 10, 1000).
e(20, 22, 8000).
e(20, 18, 3000).
e(21, 20, 8000).
e(21, 17, 6000).
e(21, 11, 4000).
e(21, 23, 3000).
e(22, 29, 6000).
e(22, 15, 3000).
e(22, 17, 5000).
e(22, 20, 5000).
e(23, 7, 1000).
e(23, 24, 9000).
e(24, 27, 6000).
e(24, 7, 8000).
e(25, 9, 3000).
e(25, 11, 8000).
e(25, 21, 5000).
e(26, 6, 5000).
e(26, 4, 5000).
e(26, 5, 1000).
e(26, 27, 7000).
e(26, 15, 3000).
e(27, 5, 6000).
e(27, 1, 9000).
e(28, 3, 3000).
e(28, 20, 8000).
e(28, 19, 6000).
e(28, 25, 1000).
e(28, 17, 5000).
e(29, 26, 5000).
e(29, 8, 2000).
e(29, 6, 5000).
e(29, 9, 2000).
