vtx(1..40).
arc(1, 35).
arc(1, 13).
arc(2, 3).
arc(2, 1).
arc(3, 21).
arc(3, 32).
arc(3, 2).
arc(3, 22).
arc(4, 9).
arc(4, 25).
arc(5, 17).
arc(6, 32).
arc(6, 9).
arc(7, 4).
arc(7, 9).
arc(8, 4).
arc(9, 39).
arc(9, 38).
arc(9, 16).
arc(9, 22).
arc(10, 15).
arc(10, 25).
arc(10, 27).
arc(11, 12).
arc(11, 6).
arc(11, 34).
arc(11, 5).
arc(12, 6).
arc(12, 21).
arc(12, 37).
arc(13, 24).
arc(13, 11).
arc(14, 6).
arc(14, 31).
arc(15, 31).
arc(15, 24).
arc(15, 29).
arc(15, 16).
arc(15, 22).
arc(15, 36).
arc(16, 36).
arc(16, 14).
arc(17, 18).
arc(17, 36).
arc(17, 27).
arc(17, 26).
arc(18, 16).
arc(19, 39).
arc(19, 38).
arc(19, 13).
arc(20, 19).
arc(20, 38).
arc(20, 26).
arc(20, 30).
arc(21, 18).
arc(22, 37).
arc(22, 24).
arc(22, 23).
arc(23, 34).
arc(23, 13).
arc(24, 11).
arc(24, 23).
arc(25, 6).
arc(25, 2).
arc(25, 9).
arc(26, 6).
arc(26, 9).
arc(27, 7).
arc(28, 19).
arc(28, 23).
arc(29, 5).
arc(29, 16).
arc(29, 1).
arc(30, 14).
arc(30, 25).
arc(30, 24).
arc(30, 12).
arc(32, 39).
arc(32, 20).
arc(32, 28).
arc(32, 3).
arc(33, 29).
arc(33, 22).
arc(33, 36).
arc(33, 4).
arc(33, 38).
arc(34, 1).
arc(34, 19).
arc(35, 22).
arc(36, 15).
arc(36, 4).
arc(37, 6).
arc(37, 10).
arc(37, 31).
arc(38, 29).
arc(38, 18).
arc(38, 20).
arc(39, 14).
arc(40, 37).
arc(40, 27).
