vtx(1..70).
arc(65,1).
arc(10,1).
arc(60,1).
arc(40,2).
arc(53,2).
arc(56,2).
arc(3,2).
arc(61,2).
arc(7,3).
arc(50,4).
arc(34,4).
arc(63,4).
arc(24,4).
arc(21,4).
arc(19,5).
arc(4,5).
arc(16,5).
arc(49,5).
arc(21,5).
arc(32,5).
arc(9,5).
arc(63,6).
arc(48,6).
arc(46,6).
arc(22,6).
arc(45,6).
arc(62,6).
arc(29,6).
arc(13,6).
arc(25,7).
arc(1,7).
arc(43,7).
arc(47,7).
arc(51,7).
arc(3,7).
arc(16,7).
arc(66,8).
arc(17,8).
arc(34,8).
arc(48,8).
arc(68,8).
arc(66,9).
arc(1,9).
arc(32,10).
arc(58,10).
arc(29,11).
arc(41,11).
arc(33,11).
arc(54,11).
arc(9,12).
arc(40,12).
arc(70,12).
arc(10,12).
arc(63,13).
arc(55,13).
arc(12,13).
arc(15,13).
arc(36,13).
arc(21,13).
arc(62,14).
arc(17,14).
arc(29,14).
arc(22,14).
arc(36,15).
arc(37,15).
arc(6,15).
arc(48,15).
arc(19,15).
arc(25,15).
arc(32,15).
arc(14,15).
arc(18,16).
arc(30,16).
arc(58,16).
arc(44,16).
arc(60,16).
arc(33,17).
arc(11,17).
arc(47,17).
arc(70,17).
arc(62,17).
arc(64,17).
arc(43,18).
arc(23,18).
arc(32,18).
arc(51,18).
arc(7,19).
arc(55,19).
arc(18,19).
arc(10,19).
arc(14,20).
arc(48,20).
arc(1,20).
arc(15,21).
arc(1,21).
arc(34,21).
arc(27,21).
arc(39,21).
arc(28,22).
arc(2,22).
arc(55,23).
arc(20,23).
arc(49,23).
arc(40,23).
arc(53,23).
arc(59,23).
arc(4,23).
arc(54,24).
arc(23,24).
arc(3,26).
arc(67,26).
arc(52,26).
arc(47,27).
arc(45,27).
arc(32,27).
arc(22,28).
arc(51,28).
arc(10,28).
arc(33,29).
arc(20,30).
arc(5,30).
arc(22,30).
arc(50,30).
arc(13,30).
arc(49,31).
arc(36,31).
arc(28,31).
arc(34,31).
arc(45,31).
arc(4,31).
arc(44,32).
arc(63,32).
arc(23,32).
arc(14,32).
arc(70,32).
arc(10,40).
arc(17,40).
arc(24,40).
arc(22,41).
arc(60,41).
arc(4,42).
arc(54,42).
arc(47,42).
arc(45,42).
arc(15,42).
arc(38,43).
arc(8,43).
arc(61,43).
arc(18,43).
arc(39,43).
arc(49,43).
arc(30,43).
arc(64,43).
arc(66,44).
arc(27,44).
arc(63,45).
arc(10,45).
arc(30,46).
arc(19,46).
arc(37,47).
arc(23,47).
arc(24,47).
arc(52,47).
arc(61,48).
arc(27,48).
arc(14,48).
arc(34,48).
arc(66,48).
arc(47,48).
arc(18,48).
arc(54,49).
arc(61,49).
arc(22,50).
arc(18,50).
arc(56,50).
arc(39,50).
arc(14,50).
arc(31,51).
arc(41,51).
arc(49,51).
arc(21,52).
arc(19,53).
arc(64,53).
arc(70,53).
arc(43,53).
arc(20,53).
arc(55,53).
arc(22,54).
arc(35,54).
arc(15,54).
arc(43,54).
arc(7,55).
arc(20,55).
arc(46,55).
arc(32,55).
arc(55,56).
arc(22,56).
arc(15,56).
arc(16,56).
arc(59,57).
arc(69,57).
arc(19,57).
arc(22,58).
arc(41,58).
arc(33,58).
arc(67,58).
arc(17,60).
arc(31,60).
arc(60,61).
arc(21,61).
arc(68,61).
arc(14,61).
arc(70,61).
arc(34,63).
arc(41,63).
arc(39,64).
arc(45,64).
arc(53,64).
arc(35,64).
arc(36,64).
arc(14,65).
arc(25,65).
arc(29,65).
arc(63,65).
arc(10,65).
arc(54,66).
arc(10,66).
arc(60,66).
arc(12,66).
arc(16,66).
arc(41,67).
arc(27,67).
arc(13,67).
arc(65,67).
arc(43,67).
arc(5,67).
arc(29,68).
arc(44,68).
arc(49,68).
arc(47,68).
arc(2,68).
arc(23,68).
arc(48,68).
arc(34,68).
arc(30,68).
arc(10,68).
arc(41,69).
arc(6,69).
arc(47,69).
arc(32,69).
arc(16,69).
arc(9,70).
arc(53,70).
arc(12,70).
arc(17,70).
arc(32,70).
arc(36,70).
