vtx(1..40).
arc(1, 19).
arc(1, 12).
arc(1, 6).
arc(1, 29).
arc(1, 32).
arc(2, 4).
arc(2, 24).
arc(2, 32).
arc(3, 35).
arc(3, 29).
arc(4, 26).
arc(4, 24).
arc(4, 15).
arc(4, 2).
arc(4, 21).
arc(4, 27).
arc(4, 12).
arc(4, 17).
arc(4, 36).
arc(5, 22).
arc(5, 14).
arc(5, 2).
arc(5, 20).
arc(5, 33).
arc(6, 28).
arc(6, 27).
arc(6, 36).
arc(6, 23).
arc(6, 24).
arc(6, 1).
arc(7, 37).
arc(7, 13).
arc(7, 34).
arc(7, 39).
arc(8, 22).
arc(8, 17).
arc(8, 3).
arc(8, 26).
arc(8, 14).
arc(8, 16).
arc(8, 5).
arc(8, 24).
arc(8, 23).
arc(8, 10).
arc(9, 14).
arc(9, 28).
arc(9, 4).
arc(10, 26).
arc(10, 14).
arc(10, 25).
arc(10, 16).
arc(10, 12).
arc(10, 4).
arc(11, 5).
arc(11, 2).
arc(11, 36).
arc(11, 6).
arc(12, 39).
arc(12, 17).
arc(12, 25).
arc(12, 29).
arc(12, 26).
arc(12, 27).
arc(13, 20).
arc(13, 36).
arc(13, 37).
arc(13, 16).
arc(13, 11).
arc(14, 28).
arc(14, 38).
arc(14, 1).
arc(15, 1).
arc(15, 10).
arc(15, 8).
arc(15, 28).
arc(15, 16).
arc(15, 17).
arc(15, 12).
arc(15, 22).
arc(16, 22).
arc(16, 26).
arc(16, 27).
arc(17, 40).
arc(17, 4).
arc(17, 37).
arc(17, 19).
arc(17, 13).
arc(17, 23).
arc(18, 6).
arc(18, 31).
arc(18, 27).
arc(18, 5).
arc(19, 14).
arc(19, 10).
arc(20, 19).
arc(20, 23).
arc(20, 33).
arc(20, 35).
arc(21, 24).
arc(21, 16).
arc(21, 14).
arc(21, 17).
arc(21, 20).
arc(21, 7).
arc(21, 39).
arc(22, 8).
arc(22, 34).
arc(22, 21).
arc(22, 2).
arc(22, 7).
arc(22, 1).
arc(22, 5).
arc(23, 35).
arc(23, 40).
arc(23, 2).
arc(23, 6).
arc(23, 18).
arc(23, 27).
arc(23, 9).
arc(24, 8).
arc(24, 18).
arc(24, 29).
arc(24, 22).
arc(25, 20).
arc(25, 13).
arc(25, 18).
arc(25, 40).
arc(26, 16).
arc(26, 22).
arc(26, 31).
arc(26, 13).
arc(26, 21).
arc(26, 36).
arc(26, 29).
arc(26, 38).
arc(27, 33).
arc(27, 34).
arc(27, 29).
arc(27, 4).
arc(27, 22).
arc(28, 25).
arc(28, 27).
arc(29, 5).
arc(29, 21).
arc(29, 37).
arc(29, 40).
arc(29, 10).
arc(30, 20).
arc(30, 28).
arc(31, 26).
arc(32, 5).
arc(32, 17).
arc(32, 13).
arc(32, 40).
arc(32, 36).
arc(32, 6).
arc(32, 14).
arc(33, 30).
arc(33, 38).
arc(33, 2).
arc(33, 26).
arc(34, 40).
arc(34, 39).
arc(34, 38).
arc(34, 9).
arc(34, 5).
arc(34, 12).
arc(35, 39).
arc(35, 5).
arc(35, 27).
arc(35, 8).
arc(35, 30).
arc(36, 15).
arc(36, 23).
arc(36, 29).
arc(36, 38).
arc(36, 34).
arc(37, 21).
arc(37, 25).
arc(37, 38).
arc(37, 14).
arc(37, 23).
arc(37, 11).
arc(37, 4).
arc(37, 29).
arc(38, 17).
arc(38, 15).
arc(38, 21).
arc(38, 19).
arc(38, 28).
arc(39, 20).
arc(39, 13).
arc(39, 15).
arc(39, 17).
arc(39, 30).
arc(40, 23).
arc(40, 3).
arc(40, 1).
arc(40, 18).
arc(40, 25).
