vtx(1..45).
arc(1, 14).
arc(1, 45).
arc(2, 30).
arc(2, 25).
arc(2, 43).
arc(2, 18).
arc(2, 1).
arc(2, 13).
arc(3, 2).
arc(3, 26).
arc(4, 19).
arc(4, 15).
arc(4, 2).
arc(4, 5).
arc(4, 26).
arc(5, 15).
arc(5, 9).
arc(5, 6).
arc(6, 1).
arc(6, 12).
arc(6, 2).
arc(8, 43).
arc(8, 41).
arc(8, 22).
arc(8, 24).
arc(8, 40).
arc(9, 27).
arc(9, 13).
arc(9, 44).
arc(9, 45).
arc(9, 36).
arc(10, 4).
arc(10, 34).
arc(10, 21).
arc(10, 30).
arc(11, 23).
arc(11, 15).
arc(11, 26).
arc(11, 20).
arc(12, 19).
arc(12, 3).
arc(13, 24).
arc(13, 5).
arc(13, 39).
arc(13, 20).
arc(13, 25).
arc(14, 7).
arc(15, 25).
arc(15, 31).
arc(15, 14).
arc(15, 6).
arc(15, 3).
arc(16, 35).
arc(16, 24).
arc(16, 42).
arc(16, 18).
arc(16, 41).
arc(16, 39).
arc(17, 13).
arc(17, 31).
arc(17, 4).
arc(17, 44).
arc(17, 37).
arc(17, 27).
arc(17, 26).
arc(18, 41).
arc(18, 5).
arc(18, 40).
arc(19, 13).
arc(20, 43).
arc(21, 42).
arc(21, 45).
arc(21, 37).
arc(21, 24).
arc(21, 2).
arc(21, 22).
arc(22, 9).
arc(22, 19).
arc(23, 40).
arc(23, 24).
arc(23, 18).
arc(23, 22).
arc(23, 45).
arc(23, 44).
arc(25, 45).
arc(25, 30).
arc(26, 2).
arc(26, 3).
arc(26, 12).
arc(27, 5).
arc(27, 44).
arc(27, 13).
arc(28, 37).
arc(29, 4).
arc(29, 35).
arc(30, 13).
arc(31, 10).
arc(31, 7).
arc(31, 37).
arc(31, 9).
arc(31, 4).
arc(32, 30).
arc(32, 11).
arc(32, 44).
arc(32, 16).
arc(33, 2).
arc(33, 5).
arc(33, 38).
arc(35, 11).
arc(35, 44).
arc(35, 30).
arc(35, 18).
arc(36, 2).
arc(36, 40).
arc(36, 31).
arc(37, 20).
arc(37, 14).
arc(37, 27).
arc(38, 44).
arc(38, 37).
arc(39, 8).
arc(39, 35).
arc(39, 12).
arc(39, 17).
arc(40, 11).
arc(40, 34).
arc(40, 35).
arc(40, 4).
arc(41, 28).
arc(41, 6).
arc(41, 12).
arc(42, 43).
arc(42, 9).
arc(42, 29).
arc(42, 7).
arc(43, 25).
arc(43, 10).
arc(43, 27).
arc(43, 31).
arc(43, 36).
arc(43, 22).
arc(43, 7).
arc(43, 20).
arc(44, 25).
arc(44, 10).
arc(44, 1).
arc(45, 5).
arc(45, 27).
arc(45, 35).
arc(45, 30).
