vtx(1..60).
arc(1, 56).
arc(1, 39).
arc(2, 1).
arc(3, 27).
arc(4, 56).
arc(5, 42).
arc(5, 47).
arc(6, 56).
arc(6, 14).
arc(6, 22).
arc(6, 49).
arc(8, 60).
arc(8, 4).
arc(9, 13).
arc(10, 29).
arc(10, 37).
arc(10, 49).
arc(11, 17).
arc(12, 37).
arc(12, 24).
arc(13, 34).
arc(13, 55).
arc(14, 48).
arc(14, 15).
arc(15, 7).
arc(15, 30).
arc(18, 36).
arc(19, 55).
arc(19, 7).
arc(19, 16).
arc(21, 46).
arc(21, 14).
arc(21, 53).
arc(21, 18).
arc(21, 27).
arc(21, 3).
arc(21, 19).
arc(22, 4).
arc(22, 46).
arc(22, 11).
arc(23, 33).
arc(23, 12).
arc(23, 47).
arc(24, 58).
arc(24, 36).
arc(25, 13).
arc(26, 35).
arc(26, 12).
arc(26, 28).
arc(27, 42).
arc(27, 29).
arc(28, 6).
arc(29, 3).
arc(30, 12).
arc(30, 5).
arc(31, 57).
arc(31, 19).
arc(31, 54).
arc(32, 13).
arc(32, 41).
arc(33, 20).
arc(34, 25).
arc(34, 14).
arc(34, 45).
arc(34, 21).
arc(34, 7).
arc(35, 49).
arc(35, 23).
arc(35, 13).
arc(36, 44).
arc(36, 28).
arc(36, 26).
arc(36, 55).
arc(37, 49).
arc(37, 28).
arc(38, 46).
arc(38, 28).
arc(38, 58).
arc(39, 1).
arc(39, 17).
arc(40, 16).
arc(40, 9).
arc(41, 17).
arc(41, 44).
arc(42, 33).
arc(42, 37).
arc(43, 18).
arc(44, 6).
arc(44, 27).
arc(47, 34).
arc(50, 23).
arc(50, 21).
arc(51, 16).
arc(51, 57).
arc(51, 31).
arc(51, 2).
arc(52, 9).
arc(52, 20).
arc(52, 14).
arc(53, 20).
arc(54, 31).
arc(54, 34).
arc(54, 48).
arc(54, 26).
arc(57, 11).
arc(57, 16).
arc(58, 25).
arc(58, 27).
arc(59, 56).
arc(60, 26).
