vtx(1..20).
arc(1, 6).
arc(1, 2).
arc(1, 5).
arc(1, 4).
arc(2, 6).
arc(2, 15).
arc(2, 16).
arc(2, 3).
arc(2, 9).
arc(2, 12).
arc(2, 5).
arc(2, 1).
arc(2, 13).
arc(3, 16).
arc(3, 15).
arc(3, 1).
arc(3, 13).
arc(3, 8).
arc(3, 6).
arc(3, 7).
arc(3, 4).
arc(3, 14).
arc(3, 17).
arc(3, 11).
arc(4, 20).
arc(4, 17).
arc(4, 15).
arc(4, 3).
arc(4, 8).
arc(4, 14).
arc(5, 13).
arc(5, 19).
arc(5, 12).
arc(5, 20).
arc(5, 6).
arc(5, 9).
arc(5, 15).
arc(6, 9).
arc(6, 14).
arc(6, 8).
arc(6, 16).
arc(6, 13).
arc(6, 17).
arc(6, 2).
arc(7, 14).
arc(7, 5).
arc(7, 4).
arc(7, 6).
arc(7, 16).
arc(7, 17).
arc(7, 10).
arc(8, 1).
arc(8, 2).
arc(8, 7).
arc(8, 15).
arc(8, 19).
arc(8, 18).
arc(8, 11).
arc(9, 19).
arc(9, 18).
arc(9, 2).
arc(9, 3).
arc(9, 7).
arc(9, 11).
arc(9, 15).
arc(10, 15).
arc(10, 9).
arc(10, 14).
arc(10, 19).
arc(10, 4).
arc(10, 18).
arc(11, 8).
arc(11, 19).
arc(11, 18).
arc(11, 10).
arc(11, 20).
arc(11, 1).
arc(11, 16).
arc(12, 2).
arc(12, 13).
arc(12, 7).
arc(12, 1).
arc(12, 11).
arc(12, 5).
arc(12, 3).
arc(12, 8).
arc(12, 18).
arc(13, 17).
arc(13, 8).
arc(13, 3).
arc(13, 1).
arc(13, 10).
arc(13, 9).
arc(13, 15).
arc(14, 6).
arc(14, 17).
arc(14, 10).
arc(14, 5).
arc(14, 20).
arc(14, 11).
arc(14, 8).
arc(14, 4).
arc(14, 13).
arc(15, 2).
arc(15, 18).
arc(15, 9).
arc(15, 4).
arc(15, 16).
arc(15, 7).
arc(15, 1).
arc(15, 8).
arc(15, 5).
arc(16, 7).
arc(16, 3).
arc(16, 2).
arc(16, 17).
arc(16, 6).
arc(16, 9).
arc(16, 15).
arc(16, 10).
arc(17, 19).
arc(17, 7).
arc(17, 1).
arc(17, 6).
arc(17, 13).
arc(17, 9).
arc(17, 3).
arc(17, 12).
arc(17, 20).
arc(18, 15).
arc(18, 1).
arc(18, 16).
arc(18, 5).
arc(18, 12).
arc(19, 17).
arc(19, 4).
arc(19, 11).
arc(19, 16).
arc(19, 2).
arc(19, 18).
arc(19, 5).
arc(20, 10).
arc(20, 4).
arc(20, 18).
arc(20, 3).
arc(20, 6).
arc(20, 13).
arc(20, 5).
arc(20, 19).
arc(20, 11).
