vtx(1..25).
arc(2, 1).
arc(2, 18).
arc(2, 22).
arc(2, 5).
arc(2, 20).
arc(2, 9).
arc(2, 8).
arc(3, 24).
arc(3, 18).
arc(3, 15).
arc(3, 17).
arc(3, 11).
arc(3, 22).
arc(4, 15).
arc(4, 10).
arc(4, 25).
arc(4, 17).
arc(4, 3).
arc(4, 6).
arc(4, 19).
arc(4, 9).
arc(5, 6).
arc(5, 12).
arc(5, 15).
arc(5, 9).
arc(5, 23).
arc(5, 4).
arc(5, 10).
arc(5, 14).
arc(6, 19).
arc(6, 14).
arc(6, 21).
arc(6, 22).
arc(6, 5).
arc(6, 15).
arc(6, 16).
arc(6, 9).
arc(7, 6).
arc(7, 10).
arc(7, 12).
arc(7, 9).
arc(7, 20).
arc(7, 23).
arc(7, 25).
arc(7, 19).
arc(7, 3).
arc(7, 22).
arc(7, 14).
arc(8, 21).
arc(8, 18).
arc(8, 4).
arc(8, 24).
arc(8, 10).
arc(8, 22).
arc(8, 1).
arc(8, 11).
arc(9, 7).
arc(9, 8).
arc(9, 10).
arc(9, 18).
arc(9, 24).
arc(10, 1).
arc(10, 13).
arc(10, 2).
arc(10, 21).
arc(10, 20).
arc(10, 19).
arc(11, 13).
arc(11, 22).
arc(11, 10).
arc(11, 18).
arc(11, 14).
arc(11, 21).
arc(11, 23).
arc(11, 15).
arc(12, 25).
arc(12, 3).
arc(12, 18).
arc(13, 20).
arc(13, 1).
arc(13, 24).
arc(13, 10).
arc(13, 11).
arc(14, 22).
arc(14, 11).
arc(14, 13).
arc(14, 15).
arc(15, 20).
arc(15, 16).
arc(15, 3).
arc(15, 7).
arc(15, 6).
arc(15, 17).
arc(15, 24).
arc(15, 12).
arc(15, 18).
arc(16, 10).
arc(16, 6).
arc(16, 21).
arc(16, 7).
arc(16, 1).
arc(16, 24).
arc(16, 14).
arc(16, 25).
arc(17, 19).
arc(17, 20).
arc(17, 16).
arc(17, 11).
arc(17, 25).
arc(17, 8).
arc(18, 20).
arc(18, 14).
arc(18, 11).
arc(18, 7).
arc(18, 3).
arc(19, 21).
arc(19, 10).
arc(19, 17).
arc(19, 22).
arc(19, 4).
arc(19, 6).
arc(19, 25).
arc(20, 3).
arc(20, 16).
arc(20, 11).
arc(20, 8).
arc(20, 14).
arc(20, 15).
arc(20, 13).
arc(21, 10).
arc(21, 22).
arc(21, 6).
arc(21, 4).
arc(21, 7).
arc(22, 23).
arc(22, 24).
arc(22, 1).
arc(22, 12).
arc(22, 7).
arc(22, 9).
arc(22, 4).
arc(23, 6).
arc(23, 22).
arc(23, 12).
arc(23, 20).
arc(24, 1).
arc(24, 8).
arc(24, 25).
arc(24, 12).
arc(24, 22).
arc(24, 19).
arc(24, 3).
arc(25, 22).
arc(25, 10).
arc(25, 15).
arc(25, 17).
arc(25, 2).
arc(25, 4).
arc(25, 23).
arc(25, 5).
