vtx(1..25).
arc(1, 15).
arc(1, 25).
arc(1, 7).
arc(1, 20).
arc(1, 11).
arc(1, 4).
arc(1, 13).
arc(2, 12).
arc(2, 6).
arc(2, 17).
arc(2, 16).
arc(2, 4).
arc(2, 14).
arc(2, 9).
arc(3, 16).
arc(3, 19).
arc(3, 25).
arc(3, 21).
arc(3, 20).
arc(3, 7).
arc(3, 12).
arc(3, 4).
arc(3, 23).
arc(3, 6).
arc(4, 23).
arc(4, 15).
arc(4, 3).
arc(4, 18).
arc(4, 14).
arc(5, 3).
arc(5, 14).
arc(5, 20).
arc(5, 10).
arc(5, 9).
arc(5, 17).
arc(6, 5).
arc(6, 19).
arc(6, 23).
arc(6, 21).
arc(6, 10).
arc(7, 2).
arc(7, 1).
arc(7, 15).
arc(7, 4).
arc(7, 10).
arc(7, 17).
arc(7, 3).
arc(7, 12).
arc(8, 7).
arc(8, 24).
arc(8, 6).
arc(8, 17).
arc(8, 14).
arc(8, 11).
arc(8, 16).
arc(8, 9).
arc(9, 22).
arc(9, 25).
arc(9, 13).
arc(9, 14).
arc(10, 17).
arc(10, 15).
arc(10, 9).
arc(10, 21).
arc(11, 15).
arc(11, 23).
arc(11, 14).
arc(11, 21).
arc(11, 13).
arc(11, 18).
arc(11, 9).
arc(12, 17).
arc(12, 14).
arc(12, 15).
arc(12, 21).
arc(12, 4).
arc(12, 7).
arc(12, 1).
arc(13, 2).
arc(13, 18).
arc(13, 22).
arc(13, 15).
arc(13, 17).
arc(13, 11).
arc(14, 24).
arc(14, 9).
arc(14, 6).
arc(14, 21).
arc(14, 20).
arc(14, 18).
arc(14, 4).
arc(14, 7).
arc(14, 2).
arc(14, 13).
arc(14, 17).
arc(14, 23).
arc(15, 19).
arc(15, 6).
arc(15, 4).
arc(15, 20).
arc(15, 17).
arc(15, 18).
arc(16, 24).
arc(16, 11).
arc(16, 4).
arc(16, 7).
arc(16, 19).
arc(16, 18).
arc(16, 6).
arc(17, 21).
arc(17, 19).
arc(17, 22).
arc(17, 8).
arc(17, 23).
arc(17, 18).
arc(18, 14).
arc(18, 23).
arc(18, 12).
arc(18, 13).
arc(19, 5).
arc(19, 16).
arc(19, 14).
arc(19, 18).
arc(19, 20).
arc(19, 3).
arc(19, 6).
arc(19, 23).
arc(20, 2).
arc(20, 8).
arc(20, 18).
arc(20, 3).
arc(20, 4).
arc(21, 20).
arc(21, 16).
arc(21, 22).
arc(21, 17).
arc(21, 8).
arc(21, 10).
arc(21, 19).
arc(21, 3).
arc(22, 6).
arc(22, 23).
arc(22, 9).
arc(22, 18).
arc(22, 5).
arc(22, 4).
arc(22, 20).
arc(22, 16).
arc(22, 13).
arc(23, 2).
arc(23, 21).
arc(23, 12).
arc(23, 1).
arc(23, 16).
arc(23, 8).
arc(23, 6).
arc(23, 22).
arc(24, 5).
arc(24, 14).
arc(24, 13).
arc(24, 23).
arc(24, 3).
arc(24, 10).
arc(24, 4).
arc(24, 1).
arc(24, 8).
arc(25, 7).
arc(25, 4).
arc(25, 11).
arc(25, 22).
