vtx(1..30).
arc(1, 18).
arc(1, 25).
arc(1, 13).
arc(1, 11).
arc(1, 10).
arc(1, 21).
arc(1, 15).
arc(1, 8).
arc(2, 16).
arc(2, 20).
arc(2, 1).
arc(2, 4).
arc(3, 29).
arc(3, 11).
arc(3, 4).
arc(3, 15).
arc(3, 21).
arc(3, 19).
arc(3, 14).
arc(3, 6).
arc(3, 26).
arc(3, 2).
arc(3, 23).
arc(4, 1).
arc(4, 3).
arc(4, 19).
arc(4, 29).
arc(4, 18).
arc(5, 4).
arc(5, 7).
arc(5, 22).
arc(5, 14).
arc(5, 29).
arc(6, 3).
arc(6, 24).
arc(6, 23).
arc(6, 17).
arc(6, 11).
arc(6, 19).
arc(6, 14).
arc(6, 21).
arc(6, 1).
arc(7, 19).
arc(7, 11).
arc(7, 2).
arc(7, 6).
arc(7, 12).
arc(8, 28).
arc(8, 23).
arc(8, 22).
arc(9, 8).
arc(9, 3).
arc(9, 17).
arc(9, 26).
arc(10, 4).
arc(10, 14).
arc(10, 17).
arc(10, 2).
arc(11, 4).
arc(11, 17).
arc(11, 5).
arc(11, 13).
arc(11, 28).
arc(11, 23).
arc(11, 26).
arc(11, 18).
arc(11, 14).
arc(11, 27).
arc(12, 25).
arc(12, 21).
arc(12, 30).
arc(12, 26).
arc(13, 22).
arc(13, 4).
arc(13, 8).
arc(13, 11).
arc(13, 6).
arc(13, 10).
arc(13, 21).
arc(13, 9).
arc(14, 26).
arc(14, 23).
arc(15, 11).
arc(15, 12).
arc(15, 23).
arc(15, 22).
arc(15, 21).
arc(15, 19).
arc(16, 28).
arc(16, 24).
arc(16, 26).
arc(16, 8).
arc(16, 15).
arc(16, 18).
arc(17, 3).
arc(17, 28).
arc(17, 2).
arc(18, 3).
arc(18, 14).
arc(18, 5).
arc(18, 8).
arc(19, 10).
arc(19, 2).
arc(19, 9).
arc(19, 26).
arc(19, 23).
arc(20, 4).
arc(20, 24).
arc(20, 21).
arc(20, 29).
arc(20, 25).
arc(20, 19).
arc(20, 18).
arc(21, 22).
arc(21, 20).
arc(21, 15).
arc(21, 7).
arc(21, 24).
arc(21, 5).
arc(22, 1).
arc(22, 7).
arc(22, 2).
arc(22, 29).
arc(22, 10).
arc(22, 21).
arc(22, 3).
arc(23, 26).
arc(23, 24).
arc(23, 10).
arc(23, 7).
arc(23, 6).
arc(23, 29).
arc(24, 20).
arc(24, 25).
arc(24, 6).
arc(24, 18).
arc(24, 14).
arc(24, 10).
arc(25, 15).
arc(25, 29).
arc(25, 28).
arc(25, 10).
arc(25, 16).
arc(26, 18).
arc(26, 2).
arc(26, 3).
arc(26, 1).
arc(26, 17).
arc(26, 30).
arc(26, 13).
arc(27, 9).
arc(27, 18).
arc(27, 15).
arc(27, 6).
arc(27, 20).
arc(27, 3).
arc(28, 10).
arc(28, 14).
arc(28, 20).
arc(29, 21).
arc(29, 9).
arc(29, 28).
arc(29, 12).
arc(29, 10).
arc(29, 16).
arc(30, 10).
arc(30, 3).
arc(30, 25).
arc(30, 11).
arc(30, 26).
