vtx(1..35).
arc(1, 21).
arc(1, 26).
arc(1, 16).
arc(1, 15).
arc(1, 29).
arc(1, 13).
arc(1, 33).
arc(1, 4).
arc(2, 1).
arc(2, 28).
arc(2, 22).
arc(2, 21).
arc(2, 3).
arc(2, 18).
arc(3, 13).
arc(3, 16).
arc(4, 18).
arc(4, 3).
arc(4, 9).
arc(4, 1).
arc(4, 32).
arc(5, 6).
arc(5, 23).
arc(5, 11).
arc(6, 34).
arc(7, 17).
arc(7, 18).
arc(7, 22).
arc(7, 19).
arc(8, 5).
arc(8, 35).
arc(8, 6).
arc(8, 16).
arc(9, 6).
arc(9, 16).
arc(9, 22).
arc(9, 4).
arc(9, 32).
arc(9, 28).
arc(9, 31).
arc(9, 15).
arc(9, 33).
arc(9, 2).
arc(9, 1).
arc(10, 25).
arc(10, 2).
arc(10, 14).
arc(10, 9).
arc(10, 13).
arc(10, 16).
arc(10, 31).
arc(11, 26).
arc(11, 2).
arc(11, 31).
arc(11, 25).
arc(12, 17).
arc(12, 27).
arc(12, 31).
arc(12, 22).
arc(12, 21).
arc(12, 2).
arc(12, 3).
arc(13, 23).
arc(13, 27).
arc(13, 34).
arc(13, 22).
arc(13, 2).
arc(14, 18).
arc(14, 11).
arc(14, 32).
arc(14, 1).
arc(15, 27).
arc(15, 12).
arc(15, 19).
arc(15, 1).
arc(15, 9).
arc(16, 14).
arc(16, 20).
arc(17, 31).
arc(17, 22).
arc(17, 2).
arc(17, 14).
arc(18, 6).
arc(18, 15).
arc(18, 22).
arc(18, 20).
arc(18, 17).
arc(18, 7).
arc(18, 16).
arc(18, 4).
arc(19, 28).
arc(19, 8).
arc(19, 33).
arc(19, 17).
arc(19, 22).
arc(19, 2).
arc(19, 15).
arc(19, 32).
arc(19, 30).
arc(20, 21).
arc(20, 12).
arc(21, 8).
arc(21, 22).
arc(21, 29).
arc(21, 5).
arc(21, 16).
arc(21, 13).
arc(22, 26).
arc(22, 29).
arc(22, 17).
arc(22, 2).
arc(22, 23).
arc(22, 13).
arc(22, 21).
arc(22, 27).
arc(23, 28).
arc(23, 16).
arc(23, 26).
arc(23, 11).
arc(23, 33).
arc(24, 6).
arc(24, 2).
arc(24, 26).
arc(24, 1).
arc(24, 17).
arc(24, 35).
arc(24, 19).
arc(24, 28).
arc(25, 13).
arc(25, 22).
arc(25, 33).
arc(25, 35).
arc(25, 9).
arc(26, 13).
arc(26, 10).
arc(26, 9).
arc(27, 15).
arc(27, 35).
arc(27, 11).
arc(27, 14).
arc(27, 26).
arc(27, 29).
arc(27, 30).
arc(29, 21).
arc(30, 21).
arc(30, 20).
arc(30, 24).
arc(30, 19).
arc(30, 8).
arc(30, 9).
arc(31, 33).
arc(31, 29).
arc(31, 4).
arc(31, 24).
arc(31, 18).
arc(32, 11).
arc(32, 7).
arc(32, 5).
arc(32, 1).
arc(32, 33).
arc(32, 34).
arc(32, 3).
arc(33, 24).
arc(33, 14).
arc(33, 4).
arc(33, 34).
arc(34, 19).
arc(34, 33).
arc(34, 21).
arc(34, 9).
arc(34, 24).
arc(34, 5).
arc(35, 28).
arc(35, 12).
arc(35, 31).
arc(35, 23).
arc(35, 32).
arc(35, 9).
arc(35, 34).
arc(35, 10).
