node(0..35).
edge(0, 35).
edge(0, 1).
edge(0, 22).
edge(1, 6).
edge(1, 29).
edge(2, 27).
edge(2, 11).
edge(2, 34).
edge(3, 13).
edge(3, 30).
edge(3, 33).
edge(4, 6).
edge(4, 23).
edge(4, 16).
edge(5, 7).
edge(5, 22).
edge(5, 8).
edge(6, 10).
edge(7, 31).
edge(7, 8).
edge(8, 12).
edge(9, 11).
edge(9, 26).
edge(9, 23).
edge(10, 14).
edge(10, 19).
edge(11, 12).
edge(12, 20).
edge(13, 26).
edge(13, 19).
edge(14, 22).
edge(14, 29).
edge(15, 24).
edge(15, 29).
edge(15, 28).
edge(16, 35).
edge(16, 21).
edge(17, 27).
edge(17, 26).
edge(17, 34).
edge(18, 32).
edge(18, 28).
edge(18, 24).
edge(19, 27).
edge(20, 21).
edge(20, 33).
edge(21, 32).
edge(23, 25).
edge(24, 30).
edge(25, 31).
edge(25, 34).
edge(28, 35).
edge(30, 33).
edge(31, 32).
