node(0..70).
edge(0, 59).
edge(0, 24).
edge(0, 19).
edge(0, 32).
edge(0, 54).
edge(0, 16).
edge(0, 5).
edge(0, 31).
edge(0, 25).
edge(0, 26).
edge(1, 15).
edge(1, 57).
edge(1, 66).
edge(1, 22).
edge(2, 21).
edge(2, 57).
edge(2, 9).
edge(2, 49).
edge(2, 48).
edge(3, 16).
edge(3, 4).
edge(3, 33).
edge(3, 47).
edge(4, 7).
edge(4, 41).
edge(4, 22).
edge(5, 45).
edge(5, 9).
edge(5, 46).
edge(5, 56).
edge(6, 29).
edge(6, 59).
edge(6, 9).
edge(6, 24).
edge(6, 23).
edge(6, 32).
edge(6, 10).
edge(7, 36).
edge(7, 41).
edge(7, 10).
edge(8, 30).
edge(8, 59).
edge(8, 48).
edge(8, 70).
edge(9, 12).
edge(9, 44).
edge(9, 21).
edge(9, 26).
edge(9, 60).
edge(10, 47).
edge(10, 46).
edge(10, 31).
edge(10, 41).
edge(10, 23).
edge(11, 31).
edge(11, 44).
edge(11, 21).
edge(11, 48).
edge(12, 59).
edge(12, 27).
edge(12, 29).
edge(12, 35).
edge(12, 25).
edge(12, 43).
edge(12, 30).
edge(13, 52).
edge(13, 31).
edge(13, 36).
edge(13, 67).
edge(13, 70).
edge(13, 64).
edge(14, 61).
edge(14, 46).
edge(14, 28).
edge(14, 57).
edge(14, 62).
edge(14, 20).
edge(15, 65).
edge(15, 29).
edge(15, 41).
edge(15, 16).
edge(15, 35).
edge(16, 57).
edge(16, 26).
edge(16, 51).
edge(16, 66).
edge(16, 18).
edge(16, 36).
edge(16, 34).
edge(17, 46).
edge(17, 49).
edge(17, 40).
edge(17, 36).
edge(18, 37).
edge(18, 57).
edge(19, 28).
edge(19, 31).
edge(19, 30).
edge(20, 61).
edge(20, 66).
edge(20, 35).
edge(20, 70).
edge(20, 34).
edge(21, 57).
edge(21, 30).
edge(21, 49).
edge(21, 50).
edge(21, 25).
edge(22, 37).
edge(23, 47).
edge(23, 31).
edge(24, 39).
edge(24, 67).
edge(24, 30).
edge(25, 47).
edge(25, 61).
edge(25, 45).
edge(25, 34).
edge(25, 60).
edge(25, 33).
edge(25, 56).
edge(26, 53).
edge(26, 46).
edge(26, 61).
edge(27, 48).
edge(27, 70).
edge(28, 70).
edge(28, 36).
edge(29, 45).
edge(29, 30).
edge(30, 38).
edge(30, 67).
edge(31, 60).
edge(31, 33).
edge(31, 52).
edge(31, 70).
edge(31, 63).
edge(32, 56).
edge(32, 33).
edge(32, 50).
edge(33, 66).
edge(33, 40).
edge(33, 44).
edge(33, 55).
edge(33, 68).
edge(34, 52).
edge(34, 64).
edge(35, 50).
edge(35, 54).
edge(36, 58).
edge(36, 62).
edge(37, 38).
edge(38, 41).
edge(38, 48).
edge(39, 45).
edge(39, 69).
edge(40, 41).
edge(41, 54).
edge(41, 42).
edge(42, 46).
edge(42, 66).
edge(43, 69).
edge(43, 61).
edge(44, 67).
edge(44, 53).
edge(45, 51).
edge(46, 49).
edge(46, 58).
edge(47, 66).
edge(47, 54).
edge(48, 59).
edge(51, 52).
edge(53, 69).
edge(54, 64).
edge(54, 67).
edge(54, 68).
edge(55, 58).
edge(55, 60).
edge(57, 70).
edge(58, 67).
edge(59, 67).
edge(59, 68).
edge(62, 65).
edge(63, 69).
edge(63, 66).
edge(63, 65).
