node(0..37).
edge(0, 30).
edge(0, 18).
edge(0, 27).
edge(1, 31).
edge(1, 7).
edge(1, 13).
edge(2, 10).
edge(2, 9).
edge(2, 24).
edge(3, 13).
edge(3, 34).
edge(3, 8).
edge(4, 36).
edge(4, 14).
edge(4, 37).
edge(5, 13).
edge(5, 17).
edge(5, 35).
edge(6, 36).
edge(6, 7).
edge(6, 25).
edge(7, 27).
edge(8, 15).
edge(8, 20).
edge(9, 26).
edge(9, 37).
edge(10, 11).
edge(10, 16).
edge(11, 36).
edge(11, 14).
edge(12, 22).
edge(12, 21).
edge(12, 26).
edge(14, 21).
edge(15, 35).
edge(15, 19).
edge(16, 25).
edge(16, 37).
edge(17, 21).
edge(17, 23).
edge(18, 23).
edge(18, 31).
edge(19, 32).
edge(19, 25).
edge(20, 22).
edge(20, 30).
edge(22, 28).
edge(23, 29).
edge(24, 33).
edge(24, 35).
edge(26, 28).
edge(27, 30).
edge(28, 29).
edge(29, 31).
edge(32, 34).
edge(32, 33).
edge(33, 34).
