node(0..39).
edge(0, 24).
edge(0, 35).
edge(0, 38).
edge(1, 28).
edge(1, 10).
edge(1, 25).
edge(2, 32).
edge(2, 38).
edge(2, 19).
edge(3, 7).
edge(3, 27).
edge(3, 26).
edge(4, 36).
edge(4, 8).
edge(4, 23).
edge(5, 10).
edge(5, 9).
edge(5, 39).
edge(6, 20).
edge(6, 29).
edge(6, 34).
edge(7, 22).
edge(7, 9).
edge(8, 36).
edge(8, 13).
edge(9, 21).
edge(10, 14).
edge(11, 17).
edge(11, 35).
edge(11, 12).
edge(12, 28).
edge(12, 35).
edge(13, 17).
edge(13, 24).
edge(14, 16).
edge(14, 33).
edge(15, 24).
edge(15, 25).
edge(15, 31).
edge(16, 20).
edge(16, 33).
edge(17, 39).
edge(18, 23).
edge(18, 25).
edge(18, 27).
edge(19, 29).
edge(19, 37).
edge(20, 22).
edge(21, 36).
edge(21, 32).
edge(22, 31).
edge(23, 32).
edge(26, 30).
edge(26, 37).
edge(27, 37).
edge(28, 34).
edge(29, 30).
edge(30, 34).
edge(31, 39).
edge(33, 38).
