node(0..59).
edge(0, 39).
edge(0, 8).
edge(0, 30).
edge(0, 58).
edge(0, 23).
edge(0, 34).
edge(0, 15).
edge(0, 35).
edge(0, 47).
edge(1, 4).
edge(1, 8).
edge(1, 34).
edge(1, 52).
edge(1, 50).
edge(1, 10).
edge(1, 36).
edge(2, 40).
edge(2, 36).
edge(2, 12).
edge(2, 58).
edge(2, 15).
edge(2, 31).
edge(2, 10).
edge(3, 9).
edge(3, 57).
edge(3, 52).
edge(3, 54).
edge(3, 22).
edge(4, 45).
edge(4, 8).
edge(4, 9).
edge(4, 36).
edge(4, 23).
edge(4, 37).
edge(4, 31).
edge(5, 51).
edge(5, 15).
edge(5, 36).
edge(5, 17).
edge(5, 22).
edge(5, 20).
edge(6, 51).
edge(6, 10).
edge(6, 35).
edge(6, 34).
edge(6, 54).
edge(7, 57).
edge(7, 39).
edge(7, 41).
edge(7, 52).
edge(8, 44).
edge(8, 48).
edge(8, 18).
edge(9, 49).
edge(9, 51).
edge(9, 27).
edge(9, 33).
edge(9, 22).
edge(10, 49).
edge(10, 28).
edge(10, 31).
edge(11, 41).
edge(11, 44).
edge(11, 19).
edge(12, 36).
edge(12, 48).
edge(12, 49).
edge(12, 19).
edge(12, 27).
edge(12, 43).
edge(13, 50).
edge(13, 57).
edge(13, 25).
edge(13, 32).
edge(14, 45).
edge(14, 22).
edge(14, 57).
edge(14, 29).
edge(15, 19).
edge(15, 57).
edge(15, 49).
edge(16, 41).
edge(16, 29).
edge(16, 22).
edge(16, 21).
edge(16, 57).
edge(16, 25).
edge(16, 46).
edge(16, 39).
edge(17, 45).
edge(17, 57).
edge(18, 30).
edge(18, 57).
edge(18, 29).
edge(18, 44).
edge(19, 52).
edge(19, 43).
edge(19, 55).
edge(19, 49).
edge(19, 48).
edge(19, 32).
edge(20, 43).
edge(20, 37).
edge(20, 51).
edge(20, 26).
edge(20, 36).
edge(21, 41).
edge(21, 46).
edge(22, 27).
edge(22, 42).
edge(22, 34).
edge(22, 41).
edge(23, 55).
edge(24, 43).
edge(24, 59).
edge(24, 53).
edge(24, 55).
edge(24, 35).
edge(25, 46).
edge(25, 43).
edge(26, 35).
edge(26, 28).
edge(27, 37).
edge(28, 35).
edge(28, 43).
edge(29, 40).
edge(30, 36).
edge(32, 42).
edge(33, 49).
edge(33, 45).
edge(34, 38).
edge(34, 50).
edge(34, 40).
edge(35, 55).
edge(36, 57).
edge(36, 50).
edge(36, 39).
edge(37, 40).
edge(37, 48).
edge(38, 40).
edge(38, 59).
edge(39, 41).
edge(40, 50).
edge(40, 45).
edge(40, 41).
edge(40, 54).
edge(41, 49).
edge(42, 54).
edge(42, 50).
edge(43, 55).
edge(44, 51).
edge(44, 52).
edge(45, 59).
edge(45, 56).
edge(47, 53).
edge(47, 57).
edge(48, 54).
edge(48, 59).
edge(49, 59).
edge(49, 54).
edge(51, 54).
edge(51, 58).
edge(52, 56).
edge(53, 55).
edge(56, 57).
