node(0..64).
edge(0, 52).
edge(0, 33).
edge(0, 55).
edge(1, 39).
edge(1, 41).
edge(1, 25).
edge(1, 51).
edge(1, 12).
edge(2, 37).
edge(2, 14).
edge(2, 10).
edge(2, 34).
edge(2, 53).
edge(3, 38).
edge(3, 24).
edge(3, 49).
edge(3, 55).
edge(4, 60).
edge(4, 37).
edge(4, 5).
edge(4, 47).
edge(4, 7).
edge(4, 27).
edge(4, 42).
edge(5, 9).
edge(5, 52).
edge(5, 42).
edge(5, 22).
edge(6, 57).
edge(6, 20).
edge(6, 28).
edge(6, 21).
edge(6, 55).
edge(6, 64).
edge(7, 48).
edge(7, 51).
edge(7, 19).
edge(8, 19).
edge(8, 23).
edge(8, 41).
edge(8, 35).
edge(8, 12).
edge(8, 32).
edge(8, 58).
edge(9, 10).
edge(9, 60).
edge(9, 41).
edge(10, 22).
edge(10, 48).
edge(11, 54).
edge(11, 22).
edge(11, 59).
edge(12, 37).
edge(12, 33).
edge(12, 27).
edge(12, 17).
edge(12, 61).
edge(12, 30).
edge(13, 29).
edge(13, 56).
edge(13, 22).
edge(13, 23).
edge(13, 58).
edge(13, 60).
edge(14, 17).
edge(14, 27).
edge(14, 33).
edge(14, 28).
edge(14, 30).
edge(14, 53).
edge(15, 60).
edge(15, 31).
edge(15, 16).
edge(15, 54).
edge(15, 55).
edge(15, 63).
edge(16, 26).
edge(16, 54).
edge(16, 55).
edge(16, 18).
edge(17, 64).
edge(17, 56).
edge(17, 28).
edge(18, 59).
edge(18, 62).
edge(18, 26).
edge(18, 63).
edge(18, 23).
edge(18, 36).
edge(19, 20).
edge(19, 28).
edge(19, 30).
edge(19, 51).
edge(19, 22).
edge(20, 38).
edge(21, 29).
edge(21, 24).
edge(21, 52).
edge(21, 57).
edge(22, 39).
edge(22, 35).
edge(22, 27).
edge(22, 29).
edge(22, 33).
edge(23, 44).
edge(23, 40).
edge(23, 47).
edge(23, 56).
edge(24, 26).
edge(24, 51).
edge(24, 45).
edge(24, 40).
edge(25, 41).
edge(25, 28).
edge(26, 45).
edge(26, 39).
edge(26, 40).
edge(27, 60).
edge(27, 43).
edge(28, 56).
edge(28, 57).
edge(28, 51).
edge(30, 45).
edge(31, 39).
edge(31, 64).
edge(31, 59).
edge(32, 60).
edge(32, 34).
edge(33, 53).
edge(34, 35).
edge(34, 46).
edge(34, 49).
edge(34, 38).
edge(34, 60).
edge(34, 50).
edge(35, 52).
edge(35, 49).
edge(36, 56).
edge(36, 47).
edge(38, 44).
edge(38, 60).
edge(39, 45).
edge(39, 47).
edge(39, 43).
edge(39, 51).
edge(39, 54).
edge(40, 45).
edge(40, 54).
edge(42, 56).
edge(43, 61).
edge(44, 56).
edge(44, 54).
edge(44, 50).
edge(44, 46).
edge(45, 59).
edge(46, 53).
edge(46, 62).
edge(46, 54).
edge(46, 63).
edge(47, 55).
edge(47, 59).
edge(48, 56).
edge(48, 49).
edge(50, 63).
edge(51, 63).
edge(51, 59).
edge(53, 58).
edge(53, 55).
edge(55, 61).
edge(62, 63).
