node(0..65).
edge(0, 10).
edge(0, 64).
edge(0, 42).
edge(0, 12).
edge(0, 35).
edge(0, 38).
edge(0, 57).
edge(1, 37).
edge(1, 14).
edge(1, 40).
edge(2, 62).
edge(2, 20).
edge(2, 10).
edge(3, 52).
edge(3, 29).
edge(3, 47).
edge(3, 46).
edge(3, 6).
edge(3, 33).
edge(3, 55).
edge(4, 65).
edge(4, 8).
edge(4, 6).
edge(4, 9).
edge(5, 55).
edge(5, 34).
edge(5, 10).
edge(5, 54).
edge(5, 16).
edge(6, 18).
edge(6, 27).
edge(6, 22).
edge(6, 63).
edge(7, 15).
edge(7, 48).
edge(7, 57).
edge(8, 30).
edge(8, 38).
edge(8, 47).
edge(8, 39).
edge(9, 39).
edge(9, 56).
edge(9, 38).
edge(9, 16).
edge(9, 41).
edge(9, 34).
edge(10, 12).
edge(10, 64).
edge(10, 49).
edge(10, 15).
edge(11, 59).
edge(11, 34).
edge(11, 46).
edge(11, 24).
edge(11, 50).
edge(11, 13).
edge(11, 26).
edge(12, 59).
edge(12, 62).
edge(13, 25).
edge(13, 55).
edge(13, 21).
edge(14, 47).
edge(14, 52).
edge(14, 46).
edge(15, 46).
edge(15, 39).
edge(15, 18).
edge(15, 60).
edge(15, 43).
edge(15, 19).
edge(15, 55).
edge(15, 61).
edge(16, 39).
edge(16, 18).
edge(16, 41).
edge(16, 54).
edge(16, 65).
edge(17, 60).
edge(17, 62).
edge(17, 30).
edge(17, 35).
edge(17, 32).
edge(17, 18).
edge(18, 65).
edge(18, 36).
edge(18, 58).
edge(18, 47).
edge(18, 23).
edge(19, 25).
edge(19, 54).
edge(20, 22).
edge(20, 49).
edge(20, 53).
edge(21, 47).
edge(21, 48).
edge(22, 42).
edge(22, 33).
edge(23, 52).
edge(23, 37).
edge(24, 39).
edge(24, 44).
edge(25, 64).
edge(25, 48).
edge(25, 30).
edge(25, 31).
edge(26, 41).
edge(26, 53).
edge(27, 33).
edge(27, 56).
edge(27, 53).
edge(27, 39).
edge(27, 50).
edge(27, 30).
edge(28, 46).
edge(28, 36).
edge(28, 37).
edge(29, 52).
edge(29, 55).
edge(29, 63).
edge(30, 56).
edge(30, 48).
edge(30, 47).
edge(30, 60).
edge(31, 41).
edge(31, 58).
edge(32, 37).
edge(32, 45).
edge(32, 47).
edge(32, 44).
edge(32, 62).
edge(33, 49).
edge(34, 59).
edge(35, 51).
edge(35, 37).
edge(35, 52).
edge(36, 61).
edge(36, 59).
edge(36, 42).
edge(37, 39).
edge(39, 47).
edge(39, 45).
edge(39, 63).
edge(40, 50).
edge(40, 45).
edge(40, 61).
edge(41, 52).
edge(41, 60).
edge(41, 63).
edge(41, 44).
edge(42, 46).
edge(42, 48).
edge(42, 60).
edge(42, 45).
edge(42, 43).
edge(43, 51).
edge(43, 60).
edge(43, 49).
edge(45, 46).
edge(45, 61).
edge(45, 65).
edge(45, 51).
edge(46, 55).
edge(46, 63).
edge(47, 52).
edge(48, 58).
edge(52, 60).
edge(54, 65).
edge(54, 63).
edge(56, 59).
edge(57, 60).
edge(58, 60).
edge(61, 65).
edge(64, 65).
