node(0..66).
edge(0, 24).
edge(0, 4).
edge(0, 47).
edge(0, 17).
edge(1, 48).
edge(1, 31).
edge(1, 40).
edge(1, 7).
edge(1, 3).
edge(1, 30).
edge(1, 21).
edge(1, 19).
edge(1, 47).
edge(2, 15).
edge(2, 47).
edge(2, 38).
edge(2, 40).
edge(3, 11).
edge(3, 59).
edge(3, 33).
edge(3, 65).
edge(3, 13).
edge(3, 30).
edge(3, 56).
edge(3, 39).
edge(4, 45).
edge(4, 12).
edge(4, 64).
edge(4, 43).
edge(4, 37).
edge(5, 11).
edge(5, 7).
edge(5, 42).
edge(5, 23).
edge(5, 10).
edge(6, 53).
edge(6, 21).
edge(6, 41).
edge(6, 31).
edge(6, 27).
edge(6, 32).
edge(7, 12).
edge(7, 53).
edge(7, 18).
edge(7, 26).
edge(7, 35).
edge(7, 50).
edge(7, 22).
edge(8, 19).
edge(8, 51).
edge(8, 57).
edge(8, 63).
edge(8, 53).
edge(9, 62).
edge(9, 16).
edge(9, 37).
edge(9, 24).
edge(10, 43).
edge(10, 42).
edge(11, 30).
edge(12, 54).
edge(12, 15).
edge(12, 53).
edge(13, 54).
edge(13, 53).
edge(13, 21).
edge(13, 44).
edge(13, 65).
edge(13, 35).
edge(13, 42).
edge(13, 63).
edge(14, 66).
edge(14, 36).
edge(14, 58).
edge(14, 20).
edge(15, 38).
edge(15, 58).
edge(15, 18).
edge(15, 22).
edge(15, 41).
edge(15, 16).
edge(15, 61).
edge(16, 33).
edge(16, 19).
edge(16, 44).
edge(16, 28).
edge(17, 34).
edge(17, 50).
edge(17, 51).
edge(17, 57).
edge(17, 53).
edge(17, 38).
edge(17, 43).
edge(18, 65).
edge(18, 51).
edge(18, 52).
edge(19, 38).
edge(19, 22).
edge(19, 23).
edge(20, 58).
edge(20, 60).
edge(21, 40).
edge(21, 22).
edge(21, 54).
edge(21, 24).
edge(21, 51).
edge(21, 23).
edge(22, 64).
edge(22, 38).
edge(22, 59).
edge(23, 65).
edge(23, 43).
edge(23, 25).
edge(24, 51).
edge(24, 27).
edge(24, 38).
edge(24, 32).
edge(25, 64).
edge(25, 65).
edge(25, 57).
edge(26, 63).
edge(26, 27).
edge(26, 36).
edge(26, 62).
edge(27, 54).
edge(27, 60).
edge(27, 58).
edge(28, 43).
edge(28, 62).
edge(29, 46).
edge(29, 54).
edge(29, 47).
edge(30, 36).
edge(30, 49).
edge(30, 58).
edge(30, 48).
edge(30, 44).
edge(31, 55).
edge(32, 57).
edge(33, 48).
edge(34, 60).
edge(34, 49).
edge(34, 38).
edge(34, 64).
edge(34, 58).
edge(34, 48).
edge(35, 46).
edge(36, 46).
edge(36, 41).
edge(36, 39).
edge(37, 40).
edge(38, 59).
edge(39, 55).
edge(40, 43).
edge(40, 65).
edge(40, 59).
edge(41, 63).
edge(42, 44).
edge(42, 51).
edge(42, 43).
edge(42, 45).
edge(43, 52).
edge(45, 49).
edge(46, 56).
edge(46, 61).
edge(46, 53).
edge(46, 50).
edge(46, 63).
edge(47, 66).
edge(50, 56).
edge(50, 61).
edge(51, 59).
edge(51, 52).
edge(51, 66).
edge(55, 60).
edge(55, 64).
edge(57, 58).
edge(58, 66).
edge(59, 64).
