node(0..35).
edge(0, 13).
edge(0, 31).
edge(0, 12).
edge(1, 15).
edge(1, 24).
edge(1, 7).
edge(2, 5).
edge(2, 28).
edge(2, 30).
edge(3, 25).
edge(3, 15).
edge(3, 23).
edge(4, 5).
edge(4, 29).
edge(4, 34).
edge(5, 13).
edge(6, 15).
edge(6, 33).
edge(6, 35).
edge(7, 13).
edge(7, 14).
edge(8, 18).
edge(8, 17).
edge(8, 28).
edge(9, 26).
edge(9, 29).
edge(9, 16).
edge(10, 21).
edge(10, 30).
edge(10, 26).
edge(11, 26).
edge(11, 22).
edge(11, 24).
edge(12, 14).
edge(12, 32).
edge(14, 19).
edge(16, 25).
edge(16, 33).
edge(17, 21).
edge(17, 20).
edge(18, 22).
edge(18, 27).
edge(19, 20).
edge(19, 31).
edge(20, 27).
edge(21, 27).
edge(22, 31).
edge(23, 34).
edge(23, 24).
edge(25, 30).
edge(28, 33).
edge(29, 35).
edge(32, 34).
edge(32, 35).
