node(0..39).
edge(0, 2).
edge(0, 8).
edge(0, 3).
edge(1, 39).
edge(1, 14).
edge(1, 4).
edge(2, 8).
edge(2, 28).
edge(3, 31).
edge(3, 26).
edge(4, 17).
edge(4, 13).
edge(5, 19).
edge(5, 15).
edge(5, 33).
edge(6, 33).
edge(6, 11).
edge(6, 23).
edge(7, 12).
edge(7, 27).
edge(7, 14).
edge(8, 39).
edge(9, 31).
edge(9, 37).
edge(9, 27).
edge(10, 20).
edge(10, 13).
edge(10, 22).
edge(11, 36).
edge(11, 14).
edge(12, 16).
edge(12, 35).
edge(13, 16).
edge(15, 21).
edge(15, 29).
edge(16, 25).
edge(17, 24).
edge(17, 38).
edge(18, 32).
edge(18, 22).
edge(18, 28).
edge(19, 27).
edge(19, 35).
edge(20, 26).
edge(20, 29).
edge(21, 24).
edge(21, 26).
edge(22, 38).
edge(23, 34).
edge(23, 30).
edge(24, 36).
edge(25, 32).
edge(25, 30).
edge(28, 33).
edge(29, 36).
edge(30, 34).
edge(31, 35).
edge(32, 37).
edge(34, 38).
edge(37, 39).
