vtx(1..12).
edge(1..45).
degree(3).
e(1,1).
e(1,7).
e(2,1).
e(2,3).
e(3,1).
e(3,11).
e(4,1).
e(4,5).
e(5,1).
e(5,2).
e(6,1).
e(6,4).
e(7,1).
e(7,9).
e(8,1).
e(8,10).
e(9,2).
e(9,4).
e(10,2).
e(10,9).
e(11,2).
e(11,8).
e(12,2).
e(12,11).
e(13,2).
e(13,3).
e(14,2).
e(14,5).
e(15,3).
e(15,7).
e(16,3).
e(16,8).
e(17,3).
e(17,5).
e(18,3).
e(18,4).
e(19,3).
e(19,9).
e(20,3).
e(20,12).
e(21,4).
e(21,6).
e(22,4).
e(22,7).
e(23,4).
e(23,11).
e(24,4).
e(24,5).
e(25,4).
e(25,8).
e(26,4).
e(26,9).
e(27,5).
e(27,11).
e(28,5).
e(28,6).
e(29,5).
e(29,9).
e(30,5).
e(30,10).
e(31,5).
e(31,12).
e(32,5).
e(32,8).
e(33,5).
e(33,7).
e(34,6).
e(34,8).
e(35,6).
e(35,9).
e(36,6).
e(36,10).
e(37,7).
e(37,10).
e(38,7).
e(38,9).
e(39,7).
e(39,11).
e(40,8).
e(40,12).
e(41,8).
e(41,11).
e(42,9).
e(42,11).
e(43,9).
e(43,12).
e(44,10).
e(44,11).
e(45,10).
e(45,12).
