vtx(1..14).
edge(1..70).
degree(8).
e(1,1).
e(1,9).
e(2,1).
e(2,7).
e(3,1).
e(3,11).
e(4,1).
e(4,12).
e(5,1).
e(5,8).
e(6,1).
e(6,6).
e(7,1).
e(7,3).
e(8,2).
e(8,10).
e(9,2).
e(9,9).
e(10,2).
e(10,12).
e(11,2).
e(11,6).
e(12,2).
e(12,14).
e(13,2).
e(13,11).
e(14,2).
e(14,3).
e(15,2).
e(15,7).
e(16,2).
e(16,5).
e(17,2).
e(17,8).
e(18,3).
e(18,11).
e(19,3).
e(19,12).
e(20,3).
e(20,8).
e(21,3).
e(21,7).
e(22,3).
e(22,4).
e(23,3).
e(23,6).
e(24,3).
e(24,5).
e(25,3).
e(25,10).
e(26,3).
e(26,13).
e(27,4).
e(27,13).
e(28,4).
e(28,12).
e(29,4).
e(29,7).
e(30,4).
e(30,6).
e(31,4).
e(31,5).
e(32,4).
e(32,10).
e(33,5).
e(33,14).
e(34,5).
e(34,6).
e(35,5).
e(35,7).
e(36,5).
e(36,13).
e(37,5).
e(37,8).
e(38,5).
e(38,9).
e(39,5).
e(39,11).
e(40,5).
e(40,10).
e(41,6).
e(41,7).
e(42,6).
e(42,12).
e(43,6).
e(43,10).
e(44,6).
e(44,8).
e(45,6).
e(45,9).
e(46,6).
e(46,14).
e(47,7).
e(47,13).
e(48,7).
e(48,12).
e(49,7).
e(49,14).
e(50,7).
e(50,11).
e(51,7).
e(51,9).
e(52,7).
e(52,10).
e(53,8).
e(53,10).
e(54,8).
e(54,11).
e(55,8).
e(55,14).
e(56,8).
e(56,9).
e(57,8).
e(57,12).
e(58,8).
e(58,13).
e(59,9).
e(59,12).
e(60,9).
e(60,13).
e(61,9).
e(61,11).
e(62,9).
e(62,10).
e(63,10).
e(63,11).
e(64,10).
e(64,12).
e(65,10).
e(65,13).
e(66,11).
e(66,14).
e(67,11).
e(67,13).
e(68,11).
e(68,12).
e(69,12).
e(69,14).
e(70,12).
e(70,13).
