vtx(1..12).
edge(1..46).
degree(5).
e(1,1).
e(1,4).
e(2,1).
e(2,11).
e(3,1).
e(3,9).
e(4,1).
e(4,5).
e(5,1).
e(5,8).
e(6,1).
e(6,6).
e(7,1).
e(7,3).
e(8,2).
e(8,8).
e(9,2).
e(9,11).
e(10,2).
e(10,9).
e(11,2).
e(11,6).
e(12,2).
e(12,3).
e(13,2).
e(13,12).
e(14,3).
e(14,8).
e(15,3).
e(15,4).
e(16,3).
e(16,11).
e(17,3).
e(17,10).
e(18,3).
e(18,12).
e(19,3).
e(19,7).
e(20,3).
e(20,5).
e(21,4).
e(21,10).
e(22,4).
e(22,11).
e(23,4).
e(23,8).
e(24,4).
e(24,6).
e(25,4).
e(25,7).
e(26,4).
e(26,12).
e(27,5).
e(27,11).
e(28,5).
e(28,7).
e(29,5).
e(29,8).
e(30,5).
e(30,12).
e(31,6).
e(31,7).
e(32,6).
e(32,12).
e(33,6).
e(33,9).
e(34,6).
e(34,8).
e(35,6).
e(35,11).
e(36,7).
e(36,10).
e(37,7).
e(37,8).
e(38,7).
e(38,12).
e(39,8).
e(39,12).
e(40,8).
e(40,11).
e(41,9).
e(41,10).
e(42,9).
e(42,11).
e(43,9).
e(43,12).
e(44,10).
e(44,11).
e(45,10).
e(45,12).
e(46,11).
e(46,12).
