vtx(1..12).
edge(1..46).
degree(3).
e(1,1).
e(1,3).
e(2,1).
e(2,9).
e(3,1).
e(3,8).
e(4,1).
e(4,6).
e(5,1).
e(5,2).
e(6,1).
e(6,12).
e(7,1).
e(7,4).
e(8,1).
e(8,10).
e(9,2).
e(9,4).
e(10,2).
e(10,8).
e(11,2).
e(11,10).
e(12,2).
e(12,5).
e(13,2).
e(13,3).
e(14,2).
e(14,11).
e(15,2).
e(15,7).
e(16,3).
e(16,12).
e(17,3).
e(17,5).
e(18,3).
e(18,9).
e(19,3).
e(19,4).
e(20,3).
e(20,7).
e(21,3).
e(21,6).
e(22,4).
e(22,5).
e(23,4).
e(23,9).
e(24,4).
e(24,8).
e(25,4).
e(25,11).
e(26,4).
e(26,10).
e(27,4).
e(27,6).
e(28,5).
e(28,12).
e(29,5).
e(29,8).
e(30,5).
e(30,7).
e(31,6).
e(31,12).
e(32,6).
e(32,7).
e(33,6).
e(33,8).
e(34,6).
e(34,11).
e(35,6).
e(35,9).
e(36,7).
e(36,12).
e(37,7).
e(37,10).
e(38,7).
e(38,8).
e(39,7).
e(39,11).
e(40,8).
e(40,9).
e(41,8).
e(41,12).
e(42,9).
e(42,10).
e(43,9).
e(43,11).
e(44,9).
e(44,12).
e(45,10).
e(45,11).
e(46,11).
e(46,12).
