vtx(1..12).
edge(1..42).
degree(3).
e(1,1).
e(1,8).
e(2,1).
e(2,12).
e(3,1).
e(3,9).
e(4,1).
e(4,7).
e(5,1).
e(5,4).
e(6,1).
e(6,10).
e(7,1).
e(7,11).
e(8,1).
e(8,3).
e(9,2).
e(9,12).
e(10,2).
e(10,8).
e(11,2).
e(11,10).
e(12,2).
e(12,4).
e(13,2).
e(13,9).
e(14,2).
e(14,3).
e(15,2).
e(15,5).
e(16,3).
e(16,6).
e(17,3).
e(17,10).
e(18,3).
e(18,11).
e(19,3).
e(19,8).
e(20,3).
e(20,9).
e(21,4).
e(21,9).
e(22,4).
e(22,7).
e(23,4).
e(23,11).
e(24,4).
e(24,5).
e(25,5).
e(25,12).
e(26,5).
e(26,9).
e(27,6).
e(27,11).
e(28,6).
e(28,7).
e(29,6).
e(29,9).
e(30,6).
e(30,12).
e(31,6).
e(31,10).
e(32,7).
e(32,11).
e(33,7).
e(33,9).
e(34,7).
e(34,10).
e(35,8).
e(35,12).
e(36,8).
e(36,10).
e(37,8).
e(37,11).
e(38,9).
e(38,10).
e(39,9).
e(39,11).
e(40,10).
e(40,11).
e(41,10).
e(41,12).
e(42,11).
e(42,12).
