vtx(1..12).
edge(1..42).
degree(4).
e(1,1).
e(1,12).
e(2,1).
e(2,11).
e(3,1).
e(3,7).
e(4,1).
e(4,10).
e(5,1).
e(5,6).
e(6,1).
e(6,4).
e(7,2).
e(7,8).
e(8,2).
e(8,7).
e(9,2).
e(9,6).
e(10,2).
e(10,10).
e(11,2).
e(11,12).
e(12,2).
e(12,5).
e(13,2).
e(13,11).
e(14,3).
e(14,11).
e(15,3).
e(15,7).
e(16,3).
e(16,4).
e(17,3).
e(17,8).
e(18,3).
e(18,10).
e(19,3).
e(19,6).
e(20,4).
e(20,6).
e(21,4).
e(21,5).
e(22,4).
e(22,8).
e(23,4).
e(23,11).
e(24,4).
e(24,10).
e(25,4).
e(25,12).
e(26,4).
e(26,7).
e(27,5).
e(27,8).
e(28,5).
e(28,7).
e(29,5).
e(29,11).
e(30,6).
e(30,7).
e(31,6).
e(31,8).
e(32,7).
e(32,11).
e(33,7).
e(33,12).
e(34,7).
e(34,10).
e(35,8).
e(35,11).
e(36,8).
e(36,9).
e(37,8).
e(37,12).
e(38,9).
e(38,11).
e(39,9).
e(39,10).
e(40,10).
e(40,11).
e(41,10).
e(41,12).
e(42,11).
e(42,12).
