vtx(1..12).
edge(1..42).
degree(4).
e(1,1).
e(1,8).
e(2,1).
e(2,4).
e(3,1).
e(3,9).
e(4,1).
e(4,10).
e(5,1).
e(5,3).
e(6,2).
e(6,3).
e(7,2).
e(7,5).
e(8,2).
e(8,8).
e(9,2).
e(9,11).
e(10,2).
e(10,9).
e(11,2).
e(11,6).
e(12,2).
e(12,12).
e(13,3).
e(13,4).
e(14,3).
e(14,12).
e(15,3).
e(15,11).
e(16,3).
e(16,10).
e(17,4).
e(17,7).
e(18,4).
e(18,11).
e(19,4).
e(19,8).
e(20,4).
e(20,6).
e(21,5).
e(21,12).
e(22,5).
e(22,6).
e(23,5).
e(23,8).
e(24,5).
e(24,9).
e(25,5).
e(25,7).
e(26,5).
e(26,11).
e(27,6).
e(27,8).
e(28,6).
e(28,7).
e(29,6).
e(29,12).
e(30,7).
e(30,10).
e(31,7).
e(31,8).
e(32,7).
e(32,12).
e(33,7).
e(33,9).
e(34,7).
e(34,11).
e(35,8).
e(35,11).
e(36,8).
e(36,12).
e(37,8).
e(37,9).
e(38,8).
e(38,10).
e(39,9).
e(39,12).
e(40,9).
e(40,10).
e(41,10).
e(41,11).
e(42,11).
e(42,12).
