vtx(1..13).
edge(1..44).
degree(3).
e(1,1).
e(1,3).
e(2,1).
e(2,7).
e(3,1).
e(3,10).
e(4,1).
e(4,6).
e(5,1).
e(5,5).
e(6,2).
e(6,3).
e(7,2).
e(7,6).
e(8,2).
e(8,5).
e(9,2).
e(9,13).
e(10,2).
e(10,11).
e(11,2).
e(11,10).
e(12,2).
e(12,7).
e(13,3).
e(13,9).
e(14,3).
e(14,5).
e(15,3).
e(15,13).
e(16,3).
e(16,11).
e(17,3).
e(17,7).
e(18,3).
e(18,8).
e(19,3).
e(19,4).
e(20,4).
e(20,8).
e(21,4).
e(21,11).
e(22,4).
e(22,5).
e(23,4).
e(23,13).
e(24,4).
e(24,6).
e(25,4).
e(25,9).
e(26,5).
e(26,8).
e(27,5).
e(27,10).
e(28,5).
e(28,7).
e(29,5).
e(29,13).
e(30,6).
e(30,7).
e(31,6).
e(31,10).
e(32,6).
e(32,8).
e(33,6).
e(33,13).
e(34,6).
e(34,9).
e(35,6).
e(35,12).
e(36,6).
e(36,11).
e(37,7).
e(37,12).
e(38,7).
e(38,9).
e(39,9).
e(39,12).
e(40,9).
e(40,10).
e(41,10).
e(41,12).
e(42,10).
e(42,11).
e(43,11).
e(43,13).
e(44,12).
e(44,13).
