vtx(1..13).
edge(1..51).
degree(5).
e(1,1).
e(1,6).
e(2,1).
e(2,8).
e(3,1).
e(3,13).
e(4,1).
e(4,3).
e(5,1).
e(5,10).
e(6,1).
e(6,7).
e(7,1).
e(7,12).
e(8,1).
e(8,2).
e(9,2).
e(9,12).
e(10,2).
e(10,8).
e(11,2).
e(11,6).
e(12,2).
e(12,3).
e(13,2).
e(13,4).
e(14,2).
e(14,11).
e(15,2).
e(15,9).
e(16,2).
e(16,10).
e(17,2).
e(17,5).
e(18,3).
e(18,4).
e(19,3).
e(19,13).
e(20,3).
e(20,12).
e(21,3).
e(21,5).
e(22,4).
e(22,13).
e(23,4).
e(23,12).
e(24,4).
e(24,10).
e(25,4).
e(25,9).
e(26,4).
e(26,6).
e(27,4).
e(27,7).
e(28,4).
e(28,5).
e(29,5).
e(29,8).
e(30,5).
e(30,9).
e(31,5).
e(31,11).
e(32,5).
e(32,6).
e(33,6).
e(33,8).
e(34,6).
e(34,12).
e(35,6).
e(35,13).
e(36,6).
e(36,11).
e(37,6).
e(37,9).
e(38,6).
e(38,10).
e(39,7).
e(39,9).
e(40,7).
e(40,12).
e(41,7).
e(41,8).
e(42,7).
e(42,10).
e(43,8).
e(43,12).
e(44,8).
e(44,11).
e(45,9).
e(45,10).
e(46,9).
e(46,11).
e(47,9).
e(47,13).
e(48,10).
e(48,12).
e(49,11).
e(49,13).
e(50,11).
e(50,12).
e(51,12).
e(51,13).
