vtx(1..14).
edge(1..57).
degree(6).
e(1,1).
e(1,5).
e(2,1).
e(2,13).
e(3,1).
e(3,6).
e(4,1).
e(4,7).
e(5,1).
e(5,8).
e(6,1).
e(6,14).
e(7,1).
e(7,4).
e(8,1).
e(8,2).
e(9,1).
e(9,10).
e(10,1).
e(10,9).
e(11,2).
e(11,12).
e(12,2).
e(12,11).
e(13,2).
e(13,10).
e(14,2).
e(14,3).
e(15,2).
e(15,7).
e(16,2).
e(16,6).
e(17,2).
e(17,13).
e(18,3).
e(18,9).
e(19,3).
e(19,5).
e(20,3).
e(20,11).
e(21,3).
e(21,8).
e(22,3).
e(22,12).
e(23,3).
e(23,7).
e(24,3).
e(24,13).
e(25,4).
e(25,6).
e(26,4).
e(26,14).
e(27,4).
e(27,11).
e(28,4).
e(28,13).
e(29,4).
e(29,5).
e(30,4).
e(30,12).
e(31,4).
e(31,9).
e(32,5).
e(32,11).
e(33,5).
e(33,12).
e(34,6).
e(34,8).
e(35,6).
e(35,10).
e(36,6).
e(36,13).
e(37,6).
e(37,7).
e(38,6).
e(38,9).
e(39,6).
e(39,14).
e(40,6).
e(40,11).
e(41,7).
e(41,13).
e(42,7).
e(42,9).
e(43,7).
e(43,12).
e(44,7).
e(44,11).
e(45,7).
e(45,10).
e(46,7).
e(46,14).
e(47,8).
e(47,9).
e(48,8).
e(48,13).
e(49,8).
e(49,12).
e(50,8).
e(50,10).
e(51,8).
e(51,14).
e(52,9).
e(52,12).
e(53,9).
e(53,13).
e(54,10).
e(54,14).
e(55,10).
e(55,12).
e(56,12).
e(56,13).
e(57,12).
e(57,14).
