vtx(1..20).
arc(1, 9, 694).
arc(1, 14, 479).
arc(1, 18, 699).
arc(2, 12, 576).
arc(2, 3, 645).
arc(2, 17, 130).
arc(2, 4, 401).
arc(2, 9, 5).
arc(2, 6, 459).
arc(3, 17, 406).
arc(3, 10, 245).
arc(3, 14, 467).
arc(3, 19, 394).
arc(3, 12, 101).
arc(3, 1, 660).
arc(4, 19, 757).
arc(4, 1, 9).
arc(4, 18, 727).
arc(4, 2, 576).
arc(5, 6, 734).
arc(5, 15, 640).
arc(5, 19, 447).
arc(5, 11, 350).
arc(5, 17, 307).
arc(5, 12, 456).
arc(6, 9, 609).
arc(6, 13, 119).
arc(6, 5, 796).
arc(6, 10, 274).
arc(6, 20, 543).
arc(7, 19, 515).
arc(7, 20, 340).
arc(7, 14, 782).
arc(7, 18, 773).
arc(8, 14, 487).
arc(8, 12, 658).
arc(8, 2, 594).
arc(8, 10, 53).
arc(9, 14, 499).
arc(9, 19, 741).
arc(10, 13, 419).
arc(10, 2, 380).
arc(11, 19, 472).
arc(11, 14, 150).
arc(11, 13, 238).
arc(11, 4, 669).
arc(12, 1, 781).
arc(12, 19, 778).
arc(12, 8, 222).
arc(12, 2, 500).
arc(12, 16, 534).
arc(13, 3, 416).
arc(13, 12, 430).
arc(13, 17, 154).
arc(13, 8, 673).
arc(14, 2, 126).
arc(14, 8, 239).
arc(14, 18, 667).
arc(14, 17, 244).
arc(15, 6, 662).
arc(15, 19, 41).
arc(15, 8, 125).
arc(16, 15, 294).
arc(16, 7, 242).
arc(16, 8, 272).
arc(17, 14, 758).
arc(17, 5, 554).
arc(17, 18, 444).
arc(17, 7, 635).
arc(17, 16, 286).
arc(17, 11, 608).
arc(17, 9, 439).
arc(17, 1, 241).
arc(17, 19, 215).
arc(18, 19, 215).
arc(18, 6, 782).
arc(18, 5, 291).
arc(18, 7, 796).
arc(18, 1, 366).
arc(19, 3, 97).
arc(19, 9, 657).
arc(19, 2, 501).
arc(19, 4, 315).
arc(19, 15, 608).
arc(20, 7, 67).
arc(20, 8, 83).
arc(20, 11, 448).
arc(20, 15, 459).
arc(20, 12, 494).
arc(20, 13, 416).
