vtx(1..30).
arc(1, 30, 700).
arc(1, 7, 165).
arc(1, 11, 105).
arc(1, 28, 436).
arc(1, 9, 324).
arc(1, 16, 576).
arc(2, 8, 764).
arc(3, 2, 10).
arc(3, 16, 614).
arc(3, 18, 413).
arc(3, 13, 574).
arc(4, 5, 546).
arc(4, 27, 352).
arc(4, 2, 45).
arc(4, 10, 780).
arc(4, 30, 727).
arc(4, 3, 162).
arc(5, 28, 262).
arc(5, 8, 395).
arc(5, 24, 685).
arc(5, 6, 727).
arc(5, 10, 424).
arc(5, 26, 652).
arc(6, 8, 796).
arc(6, 5, 761).
arc(6, 20, 718).
arc(7, 1, 176).
arc(7, 14, 89).
arc(7, 11, 529).
arc(7, 26, 483).
arc(7, 30, 324).
arc(7, 17, 72).
arc(7, 23, 649).
arc(8, 22, 736).
arc(8, 24, 216).
arc(8, 18, 655).
arc(8, 10, 144).
arc(8, 16, 301).
arc(8, 1, 699).
arc(9, 27, 155).
arc(9, 12, 205).
arc(9, 24, 419).
arc(10, 25, 631).
arc(10, 4, 111).
arc(10, 22, 97).
arc(11, 3, 242).
arc(11, 10, 739).
arc(11, 12, 516).
arc(11, 8, 127).
arc(12, 29, 420).
arc(12, 1, 767).
arc(12, 19, 167).
arc(13, 27, 34).
arc(13, 1, 110).
arc(13, 23, 191).
arc(13, 17, 567).
arc(13, 7, 168).
arc(13, 25, 280).
arc(13, 11, 463).
arc(13, 30, 240).
arc(13, 26, 677).
arc(13, 6, 610).
arc(14, 4, 680).
arc(14, 1, 327).
arc(15, 6, 432).
arc(15, 11, 266).
arc(15, 5, 585).
arc(15, 27, 250).
arc(16, 18, 332).
arc(16, 7, 125).
arc(16, 6, 423).
arc(16, 10, 639).
arc(17, 23, 8).
arc(17, 19, 454).
arc(17, 29, 97).
arc(17, 30, 206).
arc(17, 6, 589).
arc(18, 4, 259).
arc(18, 21, 166).
arc(18, 29, 555).
arc(19, 17, 788).
arc(19, 1, 605).
arc(19, 2, 707).
arc(20, 10, 134).
arc(20, 30, 92).
arc(20, 22, 394).
arc(20, 2, 130).
arc(20, 17, 380).
arc(20, 3, 196).
arc(21, 16, 641).
arc(21, 25, 486).
arc(21, 5, 402).
arc(22, 24, 793).
arc(23, 7, 307).
arc(23, 24, 794).
arc(23, 28, 608).
arc(23, 6, 291).
arc(23, 27, 50).
arc(24, 14, 396).
arc(25, 19, 179).
arc(25, 29, 709).
arc(25, 27, 471).
arc(25, 8, 65).
arc(26, 12, 616).
arc(26, 13, 302).
arc(26, 28, 509).
arc(26, 7, 282).
arc(26, 10, 5).
arc(26, 18, 671).
arc(27, 5, 538).
arc(28, 27, 664).
arc(28, 12, 354).
arc(29, 17, 222).
arc(29, 3, 394).
arc(29, 10, 630).
arc(29, 15, 469).
arc(30, 10, 86).
arc(30, 9, 574).
arc(30, 28, 117).
arc(30, 23, 611).
