vtx(1..20).
arc(1, 8, 218).
arc(1, 13, 67).
arc(2, 18, 108).
arc(2, 16, 249).
arc(2, 17, 593).
arc(2, 13, 533).
arc(2, 12, 492).
arc(2, 15, 744).
arc(2, 11, 285).
arc(3, 8, 116).
arc(3, 18, 728).
arc(4, 14, 253).
arc(4, 2, 163).
arc(4, 8, 24).
arc(4, 9, 20).
arc(5, 16, 419).
arc(5, 17, 298).
arc(5, 6, 794).
arc(6, 3, 511).
arc(6, 18, 278).
arc(6, 20, 645).
arc(6, 7, 256).
arc(6, 4, 75).
arc(6, 17, 497).
arc(6, 19, 706).
arc(7, 6, 73).
arc(7, 1, 395).
arc(7, 3, 106).
arc(7, 11, 145).
arc(7, 14, 471).
arc(8, 20, 508).
arc(8, 7, 397).
arc(8, 15, 9).
arc(8, 17, 358).
arc(8, 14, 234).
arc(9, 4, 677).
arc(9, 12, 90).
arc(9, 20, 357).
arc(9, 17, 115).
arc(9, 2, 331).
arc(9, 5, 117).
arc(10, 13, 171).
arc(10, 16, 185).
arc(10, 5, 134).
arc(10, 12, 380).
arc(11, 8, 94).
arc(11, 16, 297).
arc(11, 3, 429).
arc(11, 7, 391).
arc(12, 13, 133).
arc(12, 3, 550).
arc(12, 2, 507).
arc(12, 19, 180).
arc(12, 7, 290).
arc(12, 10, 674).
arc(13, 5, 35).
arc(13, 11, 108).
arc(13, 18, 115).
arc(13, 3, 555).
arc(13, 7, 710).
arc(14, 18, 331).
arc(15, 13, 390).
arc(15, 17, 521).
arc(15, 7, 552).
arc(15, 18, 457).
arc(15, 10, 452).
arc(15, 20, 693).
arc(15, 1, 737).
arc(16, 11, 359).
arc(16, 20, 656).
arc(16, 7, 60).
arc(16, 14, 310).
arc(17, 14, 531).
arc(17, 6, 432).
arc(17, 1, 634).
arc(17, 18, 55).
arc(17, 7, 242).
arc(17, 11, 678).
arc(18, 9, 275).
arc(18, 19, 636).
arc(18, 20, 524).
arc(18, 15, 422).
arc(18, 14, 730).
arc(18, 17, 780).
arc(18, 7, 698).
arc(18, 8, 708).
arc(19, 20, 743).
arc(19, 12, 719).
arc(19, 5, 258).
arc(19, 15, 645).
arc(19, 6, 629).
arc(20, 10, 207).
arc(20, 1, 425).
arc(20, 5, 657).
arc(20, 12, 344).
