vtx(1..20).
arc(1, 20, 600).
arc(1, 11, 113).
arc(1, 14, 470).
arc(1, 19, 517).
arc(1, 17, 547).
arc(1, 13, 292).
arc(2, 14, 374).
arc(3, 9, 285).
arc(3, 18, 641).
arc(3, 6, 706).
arc(3, 19, 766).
arc(3, 17, 394).
arc(3, 5, 321).
arc(3, 10, 590).
arc(4, 8, 555).
arc(4, 12, 2).
arc(4, 15, 348).
arc(4, 9, 9).
arc(4, 13, 661).
arc(4, 11, 88).
arc(4, 18, 721).
arc(5, 19, 265).
arc(5, 3, 28).
arc(5, 4, 784).
arc(5, 13, 542).
arc(5, 10, 556).
arc(5, 12, 186).
arc(5, 18, 538).
arc(6, 16, 587).
arc(6, 7, 610).
arc(7, 18, 333).
arc(7, 10, 419).
arc(7, 9, 9).
arc(7, 17, 754).
arc(8, 18, 55).
arc(8, 17, 711).
arc(8, 12, 669).
arc(8, 2, 621).
arc(8, 14, 566).
arc(8, 20, 770).
arc(9, 16, 777).
arc(9, 18, 238).
arc(9, 13, 605).
arc(9, 15, 638).
arc(10, 7, 207).
arc(10, 1, 89).
arc(10, 12, 497).
arc(10, 2, 517).
arc(10, 9, 583).
arc(10, 4, 294).
arc(11, 10, 605).
arc(11, 13, 46).
arc(11, 17, 439).
arc(11, 3, 292).
arc(11, 12, 667).
arc(11, 8, 2).
arc(12, 1, 654).
arc(12, 17, 476).
arc(12, 15, 120).
arc(12, 20, 319).
arc(12, 2, 644).
arc(13, 9, 745).
arc(13, 6, 151).
arc(13, 18, 480).
arc(13, 8, 44).
arc(13, 11, 126).
arc(13, 20, 181).
arc(14, 13, 381).
arc(14, 20, 468).
arc(14, 15, 108).
arc(14, 9, 204).
arc(14, 2, 506).
arc(14, 12, 300).
arc(15, 6, 572).
arc(15, 20, 153).
arc(15, 5, 341).
arc(15, 10, 546).
arc(15, 12, 379).
arc(15, 17, 269).
arc(15, 3, 204).
arc(15, 4, 248).
arc(15, 14, 4).
arc(16, 14, 287).
arc(16, 8, 535).
arc(16, 1, 715).
arc(16, 15, 793).
arc(16, 7, 11).
arc(16, 12, 541).
arc(17, 1, 636).
arc(17, 13, 624).
arc(17, 8, 495).
arc(17, 11, 243).
arc(17, 5, 176).
arc(18, 3, 155).
arc(18, 14, 643).
arc(18, 1, 18).
arc(19, 6, 329).
arc(19, 9, 504).
arc(20, 5, 779).
arc(20, 15, 738).
arc(20, 3, 779).
arc(20, 6, 580).
arc(20, 14, 747).
arc(20, 2, 447).
arc(20, 19, 618).
