vtx(1..20).
arc(1, 10, 535).
arc(1, 7, 160).
arc(1, 4, 1).
arc(1, 6, 433).
arc(1, 14, 443).
arc(1, 3, 394).
arc(1, 16, 593).
arc(1, 12, 673).
arc(2, 5, 583).
arc(2, 19, 225).
arc(2, 8, 579).
arc(2, 9, 521).
arc(2, 18, 216).
arc(3, 5, 729).
arc(4, 13, 344).
arc(4, 14, 528).
arc(4, 19, 136).
arc(4, 1, 22).
arc(4, 18, 160).
arc(4, 12, 679).
arc(4, 2, 773).
arc(4, 5, 631).
arc(5, 1, 791).
arc(5, 15, 799).
arc(5, 12, 723).
arc(6, 14, 445).
arc(6, 20, 384).
arc(6, 8, 259).
arc(6, 13, 341).
arc(6, 18, 748).
arc(6, 10, 221).
arc(6, 4, 569).
arc(6, 15, 330).
arc(6, 7, 768).
arc(6, 3, 332).
arc(7, 5, 362).
arc(7, 9, 616).
arc(7, 13, 659).
arc(7, 18, 210).
arc(7, 17, 724).
arc(7, 12, 415).
arc(8, 13, 106).
arc(8, 10, 586).
arc(8, 15, 798).
arc(8, 5, 671).
arc(8, 14, 138).
arc(8, 4, 252).
arc(9, 5, 657).
arc(9, 8, 137).
arc(9, 3, 270).
arc(9, 1, 125).
arc(9, 13, 208).
arc(10, 16, 7).
arc(10, 11, 395).
arc(10, 13, 229).
arc(10, 17, 86).
arc(11, 18, 426).
arc(11, 2, 703).
arc(11, 5, 280).
arc(11, 9, 80).
arc(11, 20, 25).
arc(11, 12, 504).
arc(12, 15, 706).
arc(12, 7, 6).
arc(12, 14, 30).
arc(12, 3, 394).
arc(12, 8, 294).
arc(13, 3, 466).
arc(13, 10, 153).
arc(13, 16, 34).
arc(13, 11, 639).
arc(13, 5, 569).
arc(14, 12, 587).
arc(14, 18, 139).
arc(14, 13, 627).
arc(14, 8, 715).
arc(14, 7, 214).
arc(14, 1, 15).
arc(14, 2, 21).
arc(15, 3, 683).
arc(15, 18, 368).
arc(15, 8, 323).
arc(15, 5, 743).
arc(15, 19, 313).
arc(15, 14, 594).
arc(15, 7, 205).
arc(16, 9, 158).
arc(16, 5, 515).
arc(16, 20, 604).
arc(16, 18, 450).
arc(16, 11, 304).
arc(17, 19, 488).
arc(17, 12, 150).
arc(17, 7, 443).
arc(17, 11, 161).
arc(17, 16, 237).
arc(17, 8, 122).
arc(18, 9, 634).
arc(18, 5, 79).
arc(18, 6, 425).
arc(18, 19, 409).
arc(18, 2, 48).
arc(19, 8, 567).
arc(19, 12, 26).
arc(19, 7, 20).
arc(19, 18, 740).
arc(19, 14, 496).
arc(19, 4, 740).
arc(20, 2, 204).
arc(20, 5, 798).
arc(20, 10, 290).
arc(20, 4, 690).
arc(20, 8, 632).
arc(20, 18, 734).
arc(20, 9, 67).
