vtx(1..25).
arc(1, 16, 783).
arc(1, 18, 688).
arc(1, 8, 65).
arc(1, 4, 86).
arc(2, 7, 473).
arc(2, 15, 496).
arc(2, 3, 190).
arc(2, 8, 726).
arc(2, 14, 489).
arc(2, 9, 596).
arc(2, 5, 569).
arc(2, 19, 408).
arc(2, 10, 49).
arc(2, 11, 596).
arc(3, 7, 774).
arc(3, 4, 763).
arc(3, 6, 415).
arc(3, 21, 339).
arc(3, 2, 346).
arc(3, 10, 263).
arc(3, 13, 227).
arc(3, 17, 23).
arc(4, 19, 444).
arc(4, 23, 684).
arc(4, 12, 17).
arc(4, 20, 38).
arc(4, 14, 258).
arc(4, 25, 391).
arc(4, 17, 104).
arc(4, 11, 418).
arc(5, 2, 290).
arc(5, 8, 271).
arc(5, 20, 5).
arc(5, 9, 784).
arc(5, 11, 231).
arc(5, 15, 282).
arc(5, 16, 89).
arc(5, 25, 312).
arc(6, 11, 488).
arc(6, 17, 106).
arc(6, 5, 350).
arc(6, 10, 299).
arc(6, 13, 457).
arc(6, 9, 470).
arc(6, 25, 178).
arc(7, 24, 318).
arc(7, 21, 12).
arc(8, 9, 191).
arc(8, 19, 259).
arc(8, 3, 441).
arc(8, 17, 58).
arc(8, 25, 523).
arc(8, 6, 470).
arc(9, 25, 704).
arc(9, 13, 559).
arc(9, 24, 494).
arc(9, 5, 63).
arc(9, 21, 414).
arc(9, 2, 423).
arc(10, 16, 242).
arc(10, 24, 99).
arc(10, 1, 184).
arc(10, 21, 216).
arc(10, 25, 35).
arc(10, 7, 504).
arc(10, 3, 369).
arc(10, 17, 557).
arc(10, 12, 688).
arc(11, 14, 325).
arc(11, 19, 384).
arc(11, 16, 400).
arc(11, 17, 226).
arc(11, 13, 300).
arc(12, 11, 372).
arc(12, 13, 520).
arc(12, 3, 706).
arc(12, 20, 227).
arc(12, 14, 122).
arc(12, 7, 387).
arc(12, 16, 473).
arc(12, 19, 372).
arc(12, 10, 508).
arc(13, 3, 185).
arc(13, 9, 674).
arc(13, 23, 159).
arc(13, 11, 118).
arc(13, 10, 608).
arc(13, 22, 701).
arc(13, 7, 284).
arc(14, 15, 665).
arc(14, 19, 363).
arc(14, 6, 247).
arc(14, 9, 600).
arc(15, 4, 485).
arc(15, 8, 24).
arc(15, 20, 392).
arc(15, 3, 170).
arc(15, 13, 269).
arc(15, 16, 392).
arc(15, 7, 271).
arc(15, 14, 696).
arc(16, 4, 525).
arc(16, 2, 670).
arc(16, 1, 309).
arc(16, 10, 306).
arc(16, 17, 140).
arc(16, 20, 15).
arc(16, 25, 376).
arc(17, 24, 136).
arc(17, 9, 566).
arc(17, 13, 65).
arc(17, 19, 29).
arc(17, 10, 480).
arc(17, 18, 567).
arc(17, 23, 306).
arc(17, 20, 505).
arc(17, 7, 580).
arc(18, 19, 422).
arc(18, 20, 74).
arc(18, 25, 188).
arc(18, 24, 358).
arc(18, 11, 323).
arc(19, 25, 213).
arc(19, 2, 271).
arc(19, 16, 227).
arc(19, 22, 404).
arc(19, 11, 94).
arc(19, 12, 449).
arc(20, 13, 420).
arc(20, 17, 645).
arc(20, 19, 89).
arc(20, 18, 74).
arc(20, 2, 185).
arc(20, 1, 511).
arc(20, 22, 631).
arc(20, 4, 775).
arc(20, 21, 689).
arc(20, 25, 353).
arc(20, 9, 674).
arc(21, 22, 621).
arc(21, 5, 641).
arc(21, 14, 73).
arc(22, 8, 798).
arc(22, 15, 176).
arc(22, 3, 359).
arc(22, 6, 121).
arc(22, 2, 271).
arc(22, 13, 734).
arc(22, 16, 172).
arc(22, 25, 239).
arc(22, 14, 539).
arc(23, 17, 355).
arc(23, 18, 355).
arc(23, 8, 232).
arc(23, 4, 40).
arc(23, 11, 67).
arc(23, 22, 759).
arc(23, 2, 514).
arc(23, 12, 237).
arc(23, 14, 393).
arc(24, 9, 138).
arc(24, 2, 594).
arc(24, 1, 44).
arc(24, 23, 721).
arc(24, 15, 776).
arc(25, 4, 598).
arc(25, 21, 794).
arc(25, 20, 616).
arc(25, 10, 258).
arc(25, 7, 770).
