vtx(1..25).
arc(1, 4, 238).
arc(1, 9, 591).
arc(1, 7, 186).
arc(1, 6, 243).
arc(1, 2, 138).
arc(1, 17, 389).
arc(2, 15, 21).
arc(2, 7, 79).
arc(2, 5, 387).
arc(2, 1, 114).
arc(2, 11, 281).
arc(3, 4, 1).
arc(3, 24, 458).
arc(3, 15, 520).
arc(3, 11, 710).
arc(3, 19, 274).
arc(3, 9, 240).
arc(3, 21, 650).
arc(3, 22, 209).
arc(4, 9, 644).
arc(4, 3, 636).
arc(4, 16, 649).
arc(4, 7, 189).
arc(5, 3, 290).
arc(5, 17, 110).
arc(5, 11, 94).
arc(5, 6, 100).
arc(5, 16, 254).
arc(6, 17, 180).
arc(6, 10, 44).
arc(7, 10, 305).
arc(7, 22, 51).
arc(7, 15, 710).
arc(7, 16, 654).
arc(7, 18, 650).
arc(7, 8, 12).
arc(7, 3, 95).
arc(7, 17, 425).
arc(8, 4, 612).
arc(8, 15, 789).
arc(9, 19, 143).
arc(9, 6, 123).
arc(9, 10, 245).
arc(9, 3, 648).
arc(9, 22, 143).
arc(9, 11, 24).
arc(10, 8, 19).
arc(10, 15, 443).
arc(10, 6, 199).
arc(10, 22, 161).
arc(10, 25, 468).
arc(10, 4, 762).
arc(11, 9, 107).
arc(11, 15, 227).
arc(11, 24, 556).
arc(11, 13, 592).
arc(11, 12, 463).
arc(12, 20, 536).
arc(12, 13, 484).
arc(12, 7, 483).
arc(12, 23, 405).
arc(12, 2, 453).
arc(12, 16, 549).
arc(12, 17, 333).
arc(12, 15, 26).
arc(12, 9, 558).
arc(12, 18, 439).
arc(12, 22, 239).
arc(13, 1, 24).
arc(13, 8, 153).
arc(13, 3, 498).
arc(13, 6, 79).
arc(13, 5, 109).
arc(13, 12, 317).
arc(13, 25, 678).
arc(14, 2, 463).
arc(14, 19, 581).
arc(14, 25, 310).
arc(14, 18, 623).
arc(14, 10, 276).
arc(14, 13, 729).
arc(14, 16, 483).
arc(15, 4, 506).
arc(15, 13, 83).
arc(15, 24, 63).
arc(16, 21, 278).
arc(16, 9, 145).
arc(16, 24, 261).
arc(16, 11, 701).
arc(16, 6, 178).
arc(16, 2, 496).
arc(16, 4, 554).
arc(17, 12, 365).
arc(17, 14, 423).
arc(17, 11, 632).
arc(17, 5, 338).
arc(17, 10, 596).
arc(17, 22, 435).
arc(17, 21, 264).
arc(18, 21, 171).
arc(18, 23, 324).
arc(18, 25, 547).
arc(18, 14, 661).
arc(18, 7, 504).
arc(19, 20, 502).
arc(19, 16, 4).
arc(19, 18, 608).
arc(19, 24, 719).
arc(19, 11, 578).
arc(19, 23, 344).
arc(19, 14, 504).
arc(19, 12, 382).
arc(19, 6, 343).
arc(20, 9, 793).
arc(20, 15, 324).
arc(20, 4, 228).
arc(20, 17, 335).
arc(20, 22, 715).
arc(20, 1, 458).
arc(21, 7, 383).
arc(21, 9, 462).
arc(21, 16, 414).
arc(22, 7, 268).
arc(22, 19, 571).
arc(22, 14, 453).
arc(23, 6, 92).
arc(23, 4, 768).
arc(23, 13, 375).
arc(23, 12, 361).
arc(23, 16, 674).
arc(23, 19, 579).
arc(23, 5, 357).
arc(23, 14, 63).
arc(23, 21, 704).
arc(23, 22, 700).
arc(23, 15, 300).
arc(24, 19, 365).
arc(24, 12, 158).
arc(24, 16, 683).
arc(24, 4, 556).
arc(24, 13, 402).
arc(24, 18, 20).
arc(25, 20, 540).
arc(25, 14, 329).
arc(25, 3, 793).
