vtx(1..30).
arc(1, 24, 566).
arc(1, 2, 433).
arc(1, 17, 699).
arc(2, 24, 574).
arc(2, 6, 196).
arc(2, 15, 94).
arc(2, 20, 425).
arc(2, 8, 427).
arc(3, 25, 448).
arc(3, 13, 560).
arc(3, 4, 237).
arc(3, 24, 371).
arc(4, 15, 210).
arc(4, 13, 195).
arc(4, 19, 346).
arc(4, 7, 518).
arc(4, 22, 82).
arc(5, 6, 71).
arc(5, 12, 589).
arc(5, 22, 330).
arc(5, 3, 652).
arc(5, 27, 778).
arc(6, 14, 596).
arc(6, 16, 382).
arc(7, 13, 552).
arc(7, 10, 690).
arc(7, 24, 462).
arc(7, 27, 558).
arc(7, 15, 770).
arc(8, 13, 206).
arc(8, 7, 630).
arc(8, 5, 624).
arc(8, 15, 203).
arc(8, 4, 643).
arc(9, 27, 228).
arc(9, 6, 30).
arc(9, 17, 506).
arc(9, 30, 482).
arc(9, 29, 372).
arc(9, 4, 130).
arc(10, 4, 412).
arc(10, 7, 33).
arc(10, 23, 672).
arc(10, 5, 168).
arc(10, 25, 792).
arc(11, 18, 226).
arc(11, 27, 353).
arc(11, 10, 621).
arc(11, 24, 744).
arc(11, 28, 591).
arc(11, 25, 312).
arc(12, 7, 786).
arc(12, 10, 324).
arc(12, 1, 45).
arc(13, 20, 640).
arc(13, 12, 697).
arc(13, 7, 505).
arc(13, 30, 207).
arc(13, 16, 55).
arc(13, 4, 112).
arc(13, 18, 498).
arc(14, 20, 605).
arc(14, 7, 42).
arc(14, 15, 426).
arc(14, 5, 330).
arc(15, 22, 270).
arc(15, 21, 519).
arc(15, 20, 153).
arc(15, 27, 357).
arc(15, 16, 193).
arc(15, 29, 336).
arc(15, 2, 679).
arc(15, 19, 66).
arc(15, 13, 428).
arc(15, 30, 129).
arc(16, 26, 122).
arc(16, 7, 229).
arc(16, 17, 479).
arc(16, 18, 60).
arc(16, 25, 593).
arc(17, 23, 675).
arc(17, 4, 423).
arc(17, 20, 340).
arc(17, 13, 425).
arc(17, 9, 698).
arc(17, 19, 576).
arc(18, 4, 447).
arc(18, 8, 436).
arc(18, 5, 84).
arc(18, 30, 439).
arc(18, 12, 158).
arc(19, 20, 222).
arc(19, 21, 272).
arc(19, 10, 374).
arc(19, 17, 322).
arc(20, 21, 741).
arc(20, 7, 200).
arc(20, 2, 462).
arc(21, 20, 166).
arc(21, 14, 701).
arc(21, 16, 363).
arc(21, 8, 42).
arc(21, 29, 556).
arc(21, 15, 307).
arc(21, 25, 451).
arc(22, 28, 774).
arc(22, 16, 436).
arc(22, 11, 378).
arc(22, 12, 271).
arc(23, 8, 228).
arc(23, 27, 485).
arc(23, 5, 672).
arc(23, 1, 644).
arc(23, 14, 179).
arc(24, 10, 87).
arc(24, 12, 19).
arc(24, 13, 4).
arc(24, 26, 337).
arc(25, 9, 422).
arc(25, 18, 766).
arc(25, 12, 719).
arc(25, 8, 784).
arc(25, 16, 230).
arc(25, 11, 259).
arc(26, 1, 15).
arc(26, 30, 237).
arc(26, 22, 130).
arc(26, 6, 67).
arc(26, 12, 513).
arc(27, 9, 444).
arc(27, 21, 644).
arc(27, 15, 616).
arc(27, 16, 604).
arc(27, 3, 169).
arc(27, 14, 732).
arc(27, 30, 601).
arc(27, 26, 69).
arc(27, 20, 269).
arc(28, 4, 99).
arc(28, 2, 425).
arc(28, 6, 29).
arc(28, 5, 409).
arc(29, 2, 335).
arc(29, 7, 224).
arc(29, 24, 564).
arc(29, 13, 700).
arc(29, 11, 70).
arc(29, 18, 785).
arc(30, 12, 221).
arc(30, 25, 640).
