vtx(1..25).
arc(1, 5, 157).
arc(1, 15, 559).
arc(1, 6, 585).
arc(1, 11, 466).
arc(1, 14, 518).
arc(1, 17, 522).
arc(1, 22, 428).
arc(1, 20, 700).
arc(1, 7, 509).
arc(2, 13, 92).
arc(2, 25, 433).
arc(2, 3, 4).
arc(2, 15, 589).
arc(2, 22, 59).
arc(2, 17, 32).
arc(2, 21, 322).
arc(2, 20, 379).
arc(2, 10, 714).
arc(3, 12, 711).
arc(3, 11, 196).
arc(3, 8, 258).
arc(3, 23, 441).
arc(3, 17, 286).
arc(3, 19, 706).
arc(4, 7, 299).
arc(4, 15, 509).
arc(4, 19, 546).
arc(4, 3, 254).
arc(4, 14, 636).
arc(4, 6, 769).
arc(4, 25, 200).
arc(4, 18, 233).
arc(4, 17, 361).
arc(5, 13, 319).
arc(5, 11, 129).
arc(5, 24, 642).
arc(5, 18, 765).
arc(5, 2, 192).
arc(5, 22, 550).
arc(5, 21, 703).
arc(5, 6, 106).
arc(6, 20, 502).
arc(6, 7, 210).
arc(6, 25, 737).
arc(6, 11, 487).
arc(7, 1, 723).
arc(7, 19, 260).
arc(7, 14, 437).
arc(7, 25, 223).
arc(7, 11, 488).
arc(7, 20, 690).
arc(8, 22, 436).
arc(8, 24, 240).
arc(8, 6, 719).
arc(8, 5, 261).
arc(8, 23, 11).
arc(8, 12, 398).
arc(8, 20, 187).
arc(8, 16, 249).
arc(9, 22, 315).
arc(9, 18, 627).
arc(9, 21, 711).
arc(9, 15, 663).
arc(9, 1, 740).
arc(9, 19, 407).
arc(9, 5, 14).
arc(9, 10, 396).
arc(10, 13, 63).
arc(10, 1, 686).
arc(10, 7, 689).
arc(10, 8, 589).
arc(10, 24, 75).
arc(10, 21, 749).
arc(10, 25, 672).
arc(10, 20, 649).
arc(10, 14, 780).
arc(11, 7, 139).
arc(11, 18, 120).
arc(11, 22, 707).
arc(11, 5, 325).
arc(11, 1, 417).
arc(11, 20, 381).
arc(11, 14, 133).
arc(11, 8, 46).
arc(12, 18, 628).
arc(12, 4, 751).
arc(13, 14, 658).
arc(13, 17, 456).
arc(13, 16, 552).
arc(13, 10, 41).
arc(13, 4, 335).
arc(13, 15, 111).
arc(13, 8, 524).
arc(13, 18, 134).
arc(13, 21, 546).
arc(14, 22, 161).
arc(14, 20, 654).
arc(14, 16, 102).
arc(14, 3, 558).
arc(14, 4, 388).
arc(14, 7, 344).
arc(14, 18, 316).
arc(15, 5, 583).
arc(15, 21, 133).
arc(15, 19, 375).
arc(15, 9, 412).
arc(15, 25, 219).
arc(15, 10, 434).
arc(15, 3, 664).
arc(15, 7, 32).
arc(16, 2, 497).
arc(16, 23, 255).
arc(16, 6, 594).
arc(16, 21, 424).
arc(16, 19, 652).
arc(16, 17, 123).
arc(16, 22, 598).
arc(17, 15, 256).
arc(17, 3, 48).
arc(17, 1, 408).
arc(17, 5, 6).
arc(17, 10, 775).
arc(17, 18, 82).
arc(17, 9, 590).
arc(17, 19, 306).
arc(17, 11, 587).
arc(18, 14, 227).
arc(18, 21, 645).
arc(18, 12, 392).
arc(18, 9, 470).
arc(18, 2, 491).
arc(19, 1, 74).
arc(19, 14, 492).
arc(19, 10, 790).
arc(19, 12, 234).
arc(19, 18, 121).
arc(19, 21, 453).
arc(19, 7, 165).
arc(19, 16, 382).
arc(20, 15, 20).
arc(20, 17, 324).
arc(20, 24, 580).
arc(20, 23, 667).
arc(20, 1, 10).
arc(20, 11, 486).
arc(20, 3, 507).
arc(20, 6, 306).
arc(21, 17, 510).
arc(21, 20, 561).
arc(21, 18, 257).
arc(21, 24, 748).
arc(21, 25, 606).
arc(21, 11, 195).
arc(21, 12, 699).
arc(21, 16, 513).
arc(21, 10, 596).
arc(22, 17, 622).
arc(22, 8, 6).
arc(22, 14, 174).
arc(22, 11, 309).
arc(22, 12, 542).
arc(22, 10, 315).
arc(22, 4, 453).
arc(22, 1, 554).
arc(22, 9, 406).
arc(23, 7, 703).
arc(23, 10, 328).
arc(23, 20, 50).
arc(23, 5, 270).
arc(23, 15, 631).
arc(23, 24, 730).
arc(23, 4, 82).
arc(23, 19, 582).
arc(24, 4, 668).
arc(24, 19, 326).
arc(24, 2, 72).
arc(24, 22, 541).
arc(24, 12, 215).
arc(24, 7, 658).
arc(24, 21, 642).
arc(24, 1, 373).
arc(25, 19, 566).
arc(25, 23, 620).
arc(25, 22, 477).
arc(25, 21, 595).
arc(25, 3, 707).
arc(25, 15, 512).
arc(25, 14, 365).
arc(25, 4, 107).
arc(25, 1, 263).
