vtx(1..30).
arc(1, 8, 566).
arc(1, 2, 248).
arc(1, 23, 503).
arc(1, 29, 489).
arc(2, 23, 424).
arc(2, 30, 107).
arc(2, 28, 683).
arc(2, 13, 52).
arc(3, 28, 560).
arc(3, 23, 188).
arc(3, 30, 545).
arc(3, 8, 491).
arc(3, 14, 528).
arc(3, 18, 493).
arc(4, 19, 707).
arc(4, 14, 372).
arc(4, 16, 450).
arc(5, 7, 499).
arc(5, 19, 68).
arc(5, 12, 365).
arc(5, 9, 690).
arc(5, 16, 76).
arc(6, 23, 140).
arc(6, 18, 549).
arc(6, 15, 223).
arc(7, 23, 92).
arc(7, 12, 352).
arc(7, 16, 543).
arc(7, 5, 686).
arc(8, 10, 494).
arc(8, 3, 660).
arc(8, 22, 354).
arc(8, 13, 745).
arc(9, 24, 461).
arc(10, 30, 274).
arc(10, 23, 475).
arc(11, 30, 82).
arc(12, 27, 306).
arc(12, 24, 758).
arc(13, 16, 340).
arc(13, 20, 315).
arc(13, 1, 19).
arc(13, 9, 645).
arc(13, 7, 202).
arc(15, 26, 351).
arc(15, 11, 313).
arc(15, 5, 666).
arc(16, 23, 674).
arc(16, 13, 466).
arc(16, 2, 303).
arc(16, 1, 632).
arc(16, 18, 9).
arc(16, 26, 80).
arc(17, 18, 706).
arc(17, 27, 663).
arc(17, 22, 322).
arc(18, 30, 52).
arc(18, 12, 134).
arc(18, 27, 573).
arc(18, 22, 405).
arc(18, 20, 189).
arc(19, 13, 400).
arc(19, 29, 619).
arc(19, 20, 797).
arc(19, 24, 208).
arc(19, 30, 596).
arc(20, 28, 487).
arc(20, 27, 497).
arc(20, 21, 648).
arc(21, 6, 431).
arc(22, 14, 746).
arc(22, 25, 171).
arc(23, 10, 431).
arc(23, 26, 444).
arc(23, 11, 64).
arc(23, 20, 677).
arc(24, 12, 540).
arc(24, 4, 752).
arc(24, 17, 727).
arc(24, 5, 473).
arc(25, 6, 37).
arc(26, 7, 498).
arc(26, 3, 699).
arc(26, 5, 227).
arc(26, 11, 639).
arc(26, 12, 657).
arc(27, 14, 409).
arc(27, 18, 370).
arc(27, 19, 574).
arc(27, 3, 510).
arc(27, 1, 690).
arc(27, 24, 657).
arc(28, 25, 319).
arc(28, 26, 109).
arc(28, 2, 244).
arc(29, 3, 427).
arc(29, 19, 160).
arc(30, 4, 634).
arc(30, 22, 467).
arc(30, 16, 401).
