% The generator for the Maximal Clique problem was invoked with the following parameters.
%   #nodes: 250
%   #edges: 20833
%   approx. #cliques: 15
%   approx. size of largest clique: 50
%   random seed: 282060474
node(1).
node(2).
node(3).
node(4).
node(5).
node(6).
node(7).
node(8).
node(9).
node(10).
node(11).
node(12).
node(13).
node(14).
node(15).
node(16).
node(17).
node(18).
node(19).
node(20).
node(21).
node(22).
node(23).
node(24).
node(25).
node(26).
node(27).
node(28).
node(29).
node(30).
node(31).
node(32).
node(33).
node(34).
node(35).
node(36).
node(37).
node(38).
node(39).
node(40).
node(41).
node(42).
node(43).
node(44).
node(45).
node(46).
node(47).
node(48).
node(49).
node(50).
node(51).
node(52).
node(53).
node(54).
node(55).
node(56).
node(57).
node(58).
node(59).
node(60).
node(61).
node(62).
node(63).
node(64).
node(65).
node(66).
node(67).
node(68).
node(69).
node(70).
node(71).
node(72).
node(73).
node(74).
node(75).
node(76).
node(77).
node(78).
node(79).
node(80).
node(81).
node(82).
node(83).
node(84).
node(85).
node(86).
node(87).
node(88).
node(89).
node(90).
node(91).
node(92).
node(93).
node(94).
node(95).
node(96).
node(97).
node(98).
node(99).
node(100).
node(101).
node(102).
node(103).
node(104).
node(105).
node(106).
node(107).
node(108).
node(109).
node(110).
node(111).
node(112).
node(113).
node(114).
node(115).
node(116).
node(117).
node(118).
node(119).
node(120).
node(121).
node(122).
node(123).
node(124).
node(125).
node(126).
node(127).
node(128).
node(129).
node(130).
node(131).
node(132).
node(133).
node(134).
node(135).
node(136).
node(137).
node(138).
node(139).
node(140).
node(141).
node(142).
node(143).
node(144).
node(145).
node(146).
node(147).
node(148).
node(149).
node(150).
node(151).
node(152).
node(153).
node(154).
node(155).
node(156).
node(157).
node(158).
node(159).
node(160).
node(161).
node(162).
node(163).
node(164).
node(165).
node(166).
node(167).
node(168).
node(169).
node(170).
node(171).
node(172).
node(173).
node(174).
node(175).
node(176).
node(177).
node(178).
node(179).
node(180).
node(181).
node(182).
node(183).
node(184).
node(185).
node(186).
node(187).
node(188).
node(189).
node(190).
node(191).
node(192).
node(193).
node(194).
node(195).
node(196).
node(197).
node(198).
node(199).
node(200).
node(201).
node(202).
node(203).
node(204).
node(205).
node(206).
node(207).
node(208).
node(209).
node(210).
node(211).
node(212).
node(213).
node(214).
node(215).
node(216).
node(217).
node(218).
node(219).
node(220).
node(221).
node(222).
node(223).
node(224).
node(225).
node(226).
node(227).
node(228).
node(229).
node(230).
node(231).
node(232).
node(233).
node(234).
node(235).
node(236).
node(237).
node(238).
node(239).
node(240).
node(241).
node(242).
node(243).
node(244).
node(245).
node(246).
node(247).
node(248).
node(249).
node(250).
edge(1,2).
edge(1,3).
edge(1,5).
edge(1,6).
edge(1,7).
edge(1,8).
edge(1,9).
edge(1,10).
edge(1,11).
edge(1,12).
edge(1,13).
edge(1,14).
edge(1,15).
edge(1,16).
edge(1,17).
edge(1,21).
edge(1,22).
edge(1,24).
edge(1,25).
edge(1,26).
edge(1,27).
edge(1,28).
edge(1,31).
edge(1,32).
edge(1,33).
edge(1,37).
edge(1,39).
edge(1,40).
edge(1,41).
edge(1,42).
edge(1,43).
edge(1,45).
edge(1,46).
edge(1,47).
edge(1,48).
edge(1,49).
edge(1,51).
edge(1,52).
edge(1,53).
edge(1,54).
edge(1,55).
edge(1,57).
edge(1,58).
edge(1,61).
edge(1,62).
edge(1,63).
edge(1,66).
edge(1,68).
edge(1,71).
edge(1,72).
edge(1,73).
edge(1,74).
edge(1,75).
edge(1,76).
edge(1,77).
edge(1,81).
edge(1,83).
edge(1,86).
edge(1,87).
edge(1,88).
edge(1,89).
edge(1,90).
edge(1,91).
edge(1,92).
edge(1,94).
edge(1,95).
edge(1,102).
edge(1,103).
edge(1,105).
edge(1,107).
edge(1,108).
edge(1,109).
edge(1,110).
edge(1,114).
edge(1,116).
edge(1,117).
edge(1,118).
edge(1,121).
edge(1,124).
edge(1,125).
edge(1,126).
edge(1,127).
edge(1,130).
edge(1,131).
edge(1,133).
edge(1,135).
edge(1,136).
edge(1,137).
edge(1,138).
edge(1,140).
edge(1,141).
edge(1,142).
edge(1,143).
edge(1,144).
edge(1,146).
edge(1,147).
edge(1,148).
edge(1,150).
edge(1,151).
edge(1,152).
edge(1,154).
edge(1,157).
edge(1,158).
edge(1,159).
edge(1,160).
edge(1,161).
edge(1,162).
edge(1,163).
edge(1,164).
edge(1,168).
edge(1,169).
edge(1,170).
edge(1,171).
edge(1,173).
edge(1,174).
edge(1,175).
edge(1,178).
edge(1,179).
edge(1,180).
edge(1,182).
edge(1,184).
edge(1,186).
edge(1,188).
edge(1,189).
edge(1,190).
edge(1,192).
edge(1,193).
edge(1,194).
edge(1,195).
edge(1,200).
edge(1,201).
edge(1,202).
edge(1,203).
edge(1,206).
edge(1,207).
edge(1,208).
edge(1,210).
edge(1,211).
edge(1,213).
edge(1,215).
edge(1,216).
edge(1,218).
edge(1,219).
edge(1,220).
edge(1,224).
edge(1,226).
edge(1,227).
edge(1,228).
edge(1,229).
edge(1,230).
edge(1,231).
edge(1,232).
edge(1,233).
edge(1,234).
edge(1,235).
edge(1,236).
edge(1,237).
edge(1,238).
edge(1,240).
edge(1,242).
edge(1,243).
edge(1,245).
edge(1,247).
edge(1,248).
edge(1,250).
edge(2,3).
edge(2,4).
edge(2,5).
edge(2,6).
edge(2,7).
edge(2,8).
edge(2,9).
edge(2,11).
edge(2,12).
edge(2,15).
edge(2,17).
edge(2,18).
edge(2,20).
edge(2,21).
edge(2,22).
edge(2,23).
edge(2,25).
edge(2,27).
edge(2,28).
edge(2,29).
edge(2,30).
edge(2,32).
edge(2,34).
edge(2,35).
edge(2,36).
edge(2,37).
edge(2,38).
edge(2,39).
edge(2,42).
edge(2,44).
edge(2,49).
edge(2,51).
edge(2,52).
edge(2,53).
edge(2,55).
edge(2,58).
edge(2,62).
edge(2,66).
edge(2,68).
edge(2,71).
edge(2,72).
edge(2,73).
edge(2,74).
edge(2,76).
edge(2,77).
edge(2,79).
edge(2,85).
edge(2,86).
edge(2,89).
edge(2,91).
edge(2,94).
edge(2,95).
edge(2,96).
edge(2,97).
edge(2,100).
edge(2,101).
edge(2,102).
edge(2,106).
edge(2,107).
edge(2,108).
edge(2,109).
edge(2,110).
edge(2,113).
edge(2,115).
edge(2,116).
edge(2,117).
edge(2,118).
edge(2,120).
edge(2,121).
edge(2,122).
edge(2,123).
edge(2,126).
edge(2,128).
edge(2,130).
edge(2,132).
edge(2,133).
edge(2,134).
edge(2,135).
edge(2,136).
edge(2,138).
edge(2,139).
edge(2,140).
edge(2,141).
edge(2,143).
edge(2,144).
edge(2,145).
edge(2,146).
edge(2,150).
edge(2,154).
edge(2,156).
edge(2,158).
edge(2,159).
edge(2,162).
edge(2,163).
edge(2,165).
edge(2,167).
edge(2,169).
edge(2,171).
edge(2,172).
edge(2,176).
edge(2,179).
edge(2,182).
edge(2,184).
edge(2,185).
edge(2,186).
edge(2,188).
edge(2,189).
edge(2,191).
edge(2,192).
edge(2,195).
edge(2,199).
edge(2,200).
edge(2,204).
edge(2,205).
edge(2,206).
edge(2,207).
edge(2,209).
edge(2,211).
edge(2,213).
edge(2,214).
edge(2,215).
edge(2,216).
edge(2,217).
edge(2,219).
edge(2,220).
edge(2,221).
edge(2,222).
edge(2,224).
edge(2,225).
edge(2,227).
edge(2,230).
edge(2,238).
edge(2,239).
edge(2,240).
edge(2,241).
edge(2,242).
edge(2,245).
edge(2,246).
edge(2,248).
edge(2,249).
edge(2,250).
edge(3,4).
edge(3,6).
edge(3,7).
edge(3,9).
edge(3,10).
edge(3,11).
edge(3,12).
edge(3,13).
edge(3,15).
edge(3,18).
edge(3,21).
edge(3,23).
edge(3,25).
edge(3,26).
edge(3,27).
edge(3,28).
edge(3,29).
edge(3,30).
edge(3,36).
edge(3,40).
edge(3,41).
edge(3,43).
edge(3,45).
edge(3,47).
edge(3,48).
edge(3,49).
edge(3,54).
edge(3,57).
edge(3,60).
edge(3,63).
edge(3,65).
edge(3,66).
edge(3,67).
edge(3,68).
edge(3,69).
edge(3,71).
edge(3,73).
edge(3,74).
edge(3,75).
edge(3,76).
edge(3,77).
edge(3,79).
edge(3,80).
edge(3,82).
edge(3,84).
edge(3,86).
edge(3,88).
edge(3,93).
edge(3,94).
edge(3,96).
edge(3,99).
edge(3,100).
edge(3,101).
edge(3,102).
edge(3,103).
edge(3,104).
edge(3,106).
edge(3,108).
edge(3,109).
edge(3,112).
edge(3,113).
edge(3,114).
edge(3,116).
edge(3,121).
edge(3,122).
edge(3,123).
edge(3,126).
edge(3,127).
edge(3,128).
edge(3,130).
edge(3,132).
edge(3,135).
edge(3,136).
edge(3,137).
edge(3,138).
edge(3,139).
edge(3,140).
edge(3,142).
edge(3,143).
edge(3,145).
edge(3,146).
edge(3,149).
edge(3,150).
edge(3,153).
edge(3,155).
edge(3,157).
edge(3,158).
edge(3,159).
edge(3,162).
edge(3,163).
edge(3,165).
edge(3,167).
edge(3,168).
edge(3,169).
edge(3,173).
edge(3,174).
edge(3,175).
edge(3,176).
edge(3,177).
edge(3,178).
edge(3,179).
edge(3,180).
edge(3,183).
edge(3,185).
edge(3,186).
edge(3,189).
edge(3,191).
edge(3,192).
edge(3,193).
edge(3,195).
edge(3,196).
edge(3,199).
edge(3,200).
edge(3,201).
edge(3,202).
edge(3,203).
edge(3,204).
edge(3,205).
edge(3,209).
edge(3,210).
edge(3,211).
edge(3,212).
edge(3,214).
edge(3,216).
edge(3,217).
edge(3,219).
edge(3,220).
edge(3,221).
edge(3,223).
edge(3,224).
edge(3,225).
edge(3,226).
edge(3,230).
edge(3,232).
edge(3,233).
edge(3,234).
edge(3,235).
edge(3,236).
edge(3,237).
edge(3,238).
edge(3,239).
edge(3,241).
edge(3,242).
edge(3,243).
edge(3,245).
edge(3,247).
edge(3,250).
edge(4,5).
edge(4,9).
edge(4,10).
edge(4,12).
edge(4,13).
edge(4,15).
edge(4,17).
edge(4,19).
edge(4,20).
edge(4,23).
edge(4,25).
edge(4,26).
edge(4,28).
edge(4,29).
edge(4,30).
edge(4,32).
edge(4,33).
edge(4,34).
edge(4,35).
edge(4,36).
edge(4,37).
edge(4,39).
edge(4,40).
edge(4,41).
edge(4,43).
edge(4,44).
edge(4,46).
edge(4,47).
edge(4,48).
edge(4,49).
edge(4,50).
edge(4,51).
edge(4,52).
edge(4,53).
edge(4,54).
edge(4,55).
edge(4,56).
edge(4,60).
edge(4,61).
edge(4,62).
edge(4,63).
edge(4,64).
edge(4,65).
edge(4,68).
edge(4,70).
edge(4,71).
edge(4,72).
edge(4,73).
edge(4,74).
edge(4,75).
edge(4,76).
edge(4,78).
edge(4,82).
edge(4,83).
edge(4,85).
edge(4,86).
edge(4,87).
edge(4,89).
edge(4,91).
edge(4,92).
edge(4,93).
edge(4,94).
edge(4,95).
edge(4,96).
edge(4,97).
edge(4,99).
edge(4,100).
edge(4,101).
edge(4,102).
edge(4,105).
edge(4,107).
edge(4,108).
edge(4,109).
edge(4,110).
edge(4,111).
edge(4,112).
edge(4,113).
edge(4,114).
edge(4,115).
edge(4,116).
edge(4,117).
edge(4,118).
edge(4,120).
edge(4,121).
edge(4,122).
edge(4,123).
edge(4,124).
edge(4,125).
edge(4,127).
edge(4,128).
edge(4,129).
edge(4,131).
edge(4,132).
edge(4,137).
edge(4,138).
edge(4,139).
edge(4,140).
edge(4,141).
edge(4,142).
edge(4,143).
edge(4,144).
edge(4,147).
edge(4,148).
edge(4,149).
edge(4,150).
edge(4,151).
edge(4,152).
edge(4,153).
edge(4,155).
edge(4,157).
edge(4,160).
edge(4,162).
edge(4,163).
edge(4,164).
edge(4,166).
edge(4,167).
edge(4,169).
edge(4,170).
edge(4,171).
edge(4,173).
edge(4,177).
edge(4,178).
edge(4,179).
edge(4,182).
edge(4,185).
edge(4,186).
edge(4,187).
edge(4,188).
edge(4,190).
edge(4,191).
edge(4,192).
edge(4,195).
edge(4,196).
edge(4,197).
edge(4,199).
edge(4,200).
edge(4,201).
edge(4,202).
edge(4,203).
edge(4,206).
edge(4,207).
edge(4,208).
edge(4,211).
edge(4,212).
edge(4,213).
edge(4,214).
edge(4,218).
edge(4,220).
edge(4,221).
edge(4,222).
edge(4,223).
edge(4,224).
edge(4,226).
edge(4,228).
edge(4,229).
edge(4,230).
edge(4,231).
edge(4,232).
edge(4,233).
edge(4,234).
edge(4,236).
edge(4,237).
edge(4,238).
edge(4,239).
edge(4,242).
edge(4,243).
edge(4,244).
edge(4,246).
edge(4,247).
edge(4,248).
edge(4,249).
edge(5,8).
edge(5,9).
edge(5,10).
edge(5,11).
edge(5,12).
edge(5,13).
edge(5,14).
edge(5,15).
edge(5,18).
edge(5,19).
edge(5,21).
edge(5,22).
edge(5,23).
edge(5,24).
edge(5,26).
edge(5,28).
edge(5,29).
edge(5,32).
edge(5,35).
edge(5,36).
edge(5,37).
edge(5,38).
edge(5,39).
edge(5,40).
edge(5,42).
edge(5,43).
edge(5,44).
edge(5,45).
edge(5,46).
edge(5,47).
edge(5,50).
edge(5,51).
edge(5,52).
edge(5,53).
edge(5,54).
edge(5,55).
edge(5,56).
edge(5,57).
edge(5,58).
edge(5,59).
edge(5,61).
edge(5,64).
edge(5,65).
edge(5,67).
edge(5,68).
edge(5,69).
edge(5,70).
edge(5,72).
edge(5,73).
edge(5,75).
edge(5,76).
edge(5,77).
edge(5,79).
edge(5,80).
edge(5,82).
edge(5,83).
edge(5,85).
edge(5,86).
edge(5,87).
edge(5,88).
edge(5,89).
edge(5,90).
edge(5,93).
edge(5,94).
edge(5,95).
edge(5,98).
edge(5,99).
edge(5,100).
edge(5,102).
edge(5,103).
edge(5,106).
edge(5,107).
edge(5,108).
edge(5,109).
edge(5,110).
edge(5,112).
edge(5,113).
edge(5,116).
edge(5,119).
edge(5,122).
edge(5,125).
edge(5,126).
edge(5,129).
edge(5,132).
edge(5,133).
edge(5,134).
edge(5,135).
edge(5,137).
edge(5,138).
edge(5,142).
edge(5,143).
edge(5,145).
edge(5,146).
edge(5,149).
edge(5,150).
edge(5,152).
edge(5,153).
edge(5,154).
edge(5,156).
edge(5,157).
edge(5,158).
edge(5,159).
edge(5,160).
edge(5,161).
edge(5,162).
edge(5,163).
edge(5,164).
edge(5,166).
edge(5,167).
edge(5,169).
edge(5,174).
edge(5,175).
edge(5,176).
edge(5,177).
edge(5,178).
edge(5,179).
edge(5,180).
edge(5,181).
edge(5,182).
edge(5,184).
edge(5,185).
edge(5,187).
edge(5,188).
edge(5,189).
edge(5,190).
edge(5,191).
edge(5,192).
edge(5,194).
edge(5,196).
edge(5,197).
edge(5,198).
edge(5,200).
edge(5,201).
edge(5,203).
edge(5,204).
edge(5,205).
edge(5,207).
edge(5,211).
edge(5,213).
edge(5,214).
edge(5,216).
edge(5,219).
edge(5,220).
edge(5,222).
edge(5,223).
edge(5,225).
edge(5,226).
edge(5,229).
edge(5,231).
edge(5,232).
edge(5,234).
edge(5,236).
edge(5,238).
edge(5,240).
edge(5,241).
edge(5,243).
edge(5,244).
edge(5,246).
edge(5,249).
edge(5,250).
edge(6,8).
edge(6,9).
edge(6,12).
edge(6,23).
edge(6,24).
edge(6,25).
edge(6,28).
edge(6,29).
edge(6,30).
edge(6,32).
edge(6,36).
edge(6,37).
edge(6,38).
edge(6,39).
edge(6,41).
edge(6,42).
edge(6,43).
edge(6,44).
edge(6,51).
edge(6,52).
edge(6,54).
edge(6,57).
edge(6,58).
edge(6,59).
edge(6,60).
edge(6,61).
edge(6,62).
edge(6,67).
edge(6,68).
edge(6,69).
edge(6,71).
edge(6,72).
edge(6,73).
edge(6,74).
edge(6,75).
edge(6,76).
edge(6,77).
edge(6,78).
edge(6,79).
edge(6,80).
edge(6,81).
edge(6,82).
edge(6,83).
edge(6,84).
edge(6,85).
edge(6,87).
edge(6,88).
edge(6,90).
edge(6,92).
edge(6,93).
edge(6,97).
edge(6,98).
edge(6,101).
edge(6,102).
edge(6,103).
edge(6,107).
edge(6,110).
edge(6,111).
edge(6,113).
edge(6,114).
edge(6,116).
edge(6,117).
edge(6,118).
edge(6,119).
edge(6,120).
edge(6,121).
edge(6,123).
edge(6,124).
edge(6,127).
edge(6,128).
edge(6,132).
edge(6,133).
edge(6,138).
edge(6,139).
edge(6,140).
edge(6,141).
edge(6,142).
edge(6,149).
edge(6,150).
edge(6,151).
edge(6,153).
edge(6,154).
edge(6,155).
edge(6,156).
edge(6,157).
edge(6,158).
edge(6,159).
edge(6,161).
edge(6,162).
edge(6,165).
edge(6,168).
edge(6,170).
edge(6,172).
edge(6,173).
edge(6,177).
edge(6,178).
edge(6,179).
edge(6,181).
edge(6,182).
edge(6,183).
edge(6,185).
edge(6,186).
edge(6,189).
edge(6,192).
edge(6,194).
edge(6,195).
edge(6,196).
edge(6,197).
edge(6,200).
edge(6,202).
edge(6,203).
edge(6,204).
edge(6,206).
edge(6,207).
edge(6,208).
edge(6,209).
edge(6,210).
edge(6,212).
edge(6,215).
edge(6,216).
edge(6,221).
edge(6,222).
edge(6,225).
edge(6,226).
edge(6,227).
edge(6,228).
edge(6,229).
edge(6,231).
edge(6,233).
edge(6,235).
edge(6,236).
edge(6,239).
edge(6,240).
edge(6,241).
edge(6,243).
edge(6,244).
edge(6,246).
edge(6,247).
edge(6,248).
edge(6,249).
edge(7,8).
edge(7,9).
edge(7,10).
edge(7,13).
edge(7,14).
edge(7,15).
edge(7,17).
edge(7,18).
edge(7,19).
edge(7,20).
edge(7,22).
edge(7,23).
edge(7,25).
edge(7,26).
edge(7,27).
edge(7,30).
edge(7,32).
edge(7,33).
edge(7,34).
edge(7,36).
edge(7,37).
edge(7,38).
edge(7,39).
edge(7,41).
edge(7,44).
edge(7,45).
edge(7,47).
edge(7,51).
edge(7,52).
edge(7,54).
edge(7,55).
edge(7,56).
edge(7,57).
edge(7,59).
edge(7,60).
edge(7,61).
edge(7,62).
edge(7,63).
edge(7,64).
edge(7,65).
edge(7,66).
edge(7,68).
edge(7,69).
edge(7,71).
edge(7,73).
edge(7,75).
edge(7,76).
edge(7,77).
edge(7,78).
edge(7,79).
edge(7,81).
edge(7,83).
edge(7,84).
edge(7,85).
edge(7,86).
edge(7,87).
edge(7,89).
edge(7,91).
edge(7,93).
edge(7,95).
edge(7,96).
edge(7,99).
edge(7,101).
edge(7,102).
edge(7,103).
edge(7,104).
edge(7,106).
edge(7,108).
edge(7,109).
edge(7,112).
edge(7,114).
edge(7,115).
edge(7,118).
edge(7,120).
edge(7,122).
edge(7,123).
edge(7,124).
edge(7,125).
edge(7,128).
edge(7,129).
edge(7,131).
edge(7,132).
edge(7,133).
edge(7,134).
edge(7,137).
edge(7,138).
edge(7,139).
edge(7,140).
edge(7,141).
edge(7,142).
edge(7,143).
edge(7,145).
edge(7,148).
edge(7,149).
edge(7,151).
edge(7,153).
edge(7,154).
edge(7,155).
edge(7,156).
edge(7,157).
edge(7,158).
edge(7,159).
edge(7,160).
edge(7,162).
edge(7,163).
edge(7,164).
edge(7,165).
edge(7,166).
edge(7,167).
edge(7,168).
edge(7,169).
edge(7,170).
edge(7,172).
edge(7,175).
edge(7,176).
edge(7,177).
edge(7,179).
edge(7,180).
edge(7,181).
edge(7,182).
edge(7,183).
edge(7,184).
edge(7,185).
edge(7,186).
edge(7,188).
edge(7,190).
edge(7,191).
edge(7,194).
edge(7,197).
edge(7,199).
edge(7,200).
edge(7,201).
edge(7,205).
edge(7,207).
edge(7,210).
edge(7,211).
edge(7,212).
edge(7,213).
edge(7,214).
edge(7,215).
edge(7,217).
edge(7,220).
edge(7,223).
edge(7,228).
edge(7,229).
edge(7,230).
edge(7,231).
edge(7,232).
edge(7,233).
edge(7,234).
edge(7,235).
edge(7,237).
edge(7,241).
edge(7,242).
edge(7,244).
edge(7,245).
edge(7,247).
edge(7,248).
edge(7,249).
edge(7,250).
edge(8,9).
edge(8,10).
edge(8,11).
edge(8,13).
edge(8,14).
edge(8,17).
edge(8,18).
edge(8,19).
edge(8,20).
edge(8,21).
edge(8,23).
edge(8,24).
edge(8,25).
edge(8,26).
edge(8,27).
edge(8,28).
edge(8,29).
edge(8,30).
edge(8,31).
edge(8,32).
edge(8,33).
edge(8,34).
edge(8,36).
edge(8,37).
edge(8,38).
edge(8,39).
edge(8,40).
edge(8,42).
edge(8,43).
edge(8,44).
edge(8,45).
edge(8,47).
edge(8,49).
edge(8,50).
edge(8,51).
edge(8,52).
edge(8,55).
edge(8,56).
edge(8,57).
edge(8,58).
edge(8,60).
edge(8,61).
edge(8,62).
edge(8,65).
edge(8,66).
edge(8,69).
edge(8,70).
edge(8,72).
edge(8,73).
edge(8,74).
edge(8,75).
edge(8,76).
edge(8,77).
edge(8,79).
edge(8,80).
edge(8,81).
edge(8,82).
edge(8,83).
edge(8,84).
edge(8,85).
edge(8,86).
edge(8,87).
edge(8,88).
edge(8,89).
edge(8,90).
edge(8,92).
edge(8,93).
edge(8,94).
edge(8,95).
edge(8,96).
edge(8,97).
edge(8,98).
edge(8,99).
edge(8,100).
edge(8,103).
edge(8,104).
edge(8,105).
edge(8,106).
edge(8,107).
edge(8,110).
edge(8,111).
edge(8,113).
edge(8,114).
edge(8,115).
edge(8,116).
edge(8,117).
edge(8,119).
edge(8,122).
edge(8,124).
edge(8,125).
edge(8,127).
edge(8,129).
edge(8,130).
edge(8,131).
edge(8,135).
edge(8,136).
edge(8,139).
edge(8,141).
edge(8,142).
edge(8,144).
edge(8,145).
edge(8,146).
edge(8,147).
edge(8,149).
edge(8,150).
edge(8,152).
edge(8,154).
edge(8,156).
edge(8,157).
edge(8,158).
edge(8,159).
edge(8,160).
edge(8,162).
edge(8,163).
edge(8,164).
edge(8,167).
edge(8,168).
edge(8,169).
edge(8,170).
edge(8,172).
edge(8,173).
edge(8,174).
edge(8,175).
edge(8,177).
edge(8,178).
edge(8,179).
edge(8,180).
edge(8,181).
edge(8,184).
edge(8,185).
edge(8,186).
edge(8,187).
edge(8,188).
edge(8,189).
edge(8,190).
edge(8,191).
edge(8,193).
edge(8,194).
edge(8,195).
edge(8,196).
edge(8,197).
edge(8,198).
edge(8,199).
edge(8,200).
edge(8,201).
edge(8,203).
edge(8,204).
edge(8,205).
edge(8,206).
edge(8,207).
edge(8,208).
edge(8,210).
edge(8,211).
edge(8,213).
edge(8,214).
edge(8,215).
edge(8,216).
edge(8,220).
edge(8,221).
edge(8,223).
edge(8,224).
edge(8,225).
edge(8,229).
edge(8,231).
edge(8,232).
edge(8,233).
edge(8,234).
edge(8,235).
edge(8,236).
edge(8,237).
edge(8,238).
edge(8,239).
edge(8,241).
edge(8,242).
edge(8,243).
edge(8,244).
edge(8,245).
edge(8,246).
edge(8,247).
edge(8,248).
edge(8,249).
edge(8,250).
edge(9,10).
edge(9,11).
edge(9,12).
edge(9,13).
edge(9,14).
edge(9,16).
edge(9,17).
edge(9,18).
edge(9,19).
edge(9,21).
edge(9,25).
edge(9,26).
edge(9,27).
edge(9,28).
edge(9,29).
edge(9,31).
edge(9,32).
edge(9,33).
edge(9,35).
edge(9,36).
edge(9,37).
edge(9,38).
edge(9,39).
edge(9,40).
edge(9,41).
edge(9,42).
edge(9,43).
edge(9,46).
edge(9,47).
edge(9,48).
edge(9,50).
edge(9,51).
edge(9,52).
edge(9,53).
edge(9,55).
edge(9,57).
edge(9,59).
edge(9,61).
edge(9,62).
edge(9,64).
edge(9,65).
edge(9,68).
edge(9,70).
edge(9,71).
edge(9,72).
edge(9,73).
edge(9,74).
edge(9,78).
edge(9,80).
edge(9,81).
edge(9,83).
edge(9,84).
edge(9,85).
edge(9,86).
edge(9,87).
edge(9,88).
edge(9,89).
edge(9,91).
edge(9,93).
edge(9,94).
edge(9,96).
edge(9,97).
edge(9,98).
edge(9,99).
edge(9,100).
edge(9,101).
edge(9,102).
edge(9,104).
edge(9,105).
edge(9,106).
edge(9,107).
edge(9,109).
edge(9,110).
edge(9,111).
edge(9,113).
edge(9,114).
edge(9,116).
edge(9,118).
edge(9,121).
edge(9,122).
edge(9,123).
edge(9,124).
edge(9,125).
edge(9,126).
edge(9,127).
edge(9,128).
edge(9,132).
edge(9,133).
edge(9,134).
edge(9,136).
edge(9,138).
edge(9,139).
edge(9,140).
edge(9,142).
edge(9,143).
edge(9,144).
edge(9,145).
edge(9,146).
edge(9,147).
edge(9,148).
edge(9,149).
edge(9,150).
edge(9,152).
edge(9,153).
edge(9,154).
edge(9,156).
edge(9,158).
edge(9,161).
edge(9,162).
edge(9,163).
edge(9,165).
edge(9,167).
edge(9,168).
edge(9,171).
edge(9,174).
edge(9,175).
edge(9,177).
edge(9,178).
edge(9,179).
edge(9,180).
edge(9,183).
edge(9,184).
edge(9,185).
edge(9,186).
edge(9,189).
edge(9,192).
edge(9,193).
edge(9,194).
edge(9,196).
edge(9,197).
edge(9,198).
edge(9,199).
edge(9,200).
edge(9,203).
edge(9,204).
edge(9,205).
edge(9,207).
edge(9,208).
edge(9,210).
edge(9,213).
edge(9,214).
edge(9,216).
edge(9,218).
edge(9,219).
edge(9,220).
edge(9,223).
edge(9,224).
edge(9,225).
edge(9,226).
edge(9,227).
edge(9,228).
edge(9,229).
edge(9,231).
edge(9,233).
edge(9,234).
edge(9,235).
edge(9,237).
edge(9,238).
edge(9,239).
edge(9,240).
edge(9,243).
edge(9,244).
edge(9,245).
edge(9,246).
edge(9,249).
edge(10,11).
edge(10,12).
edge(10,13).
edge(10,14).
edge(10,15).
edge(10,16).
edge(10,18).
edge(10,20).
edge(10,21).
edge(10,22).
edge(10,23).
edge(10,24).
edge(10,26).
edge(10,29).
edge(10,30).
edge(10,31).
edge(10,33).
edge(10,34).
edge(10,36).
edge(10,39).
edge(10,41).
edge(10,43).
edge(10,44).
edge(10,45).
edge(10,47).
edge(10,49).
edge(10,50).
edge(10,51).
edge(10,52).
edge(10,53).
edge(10,54).
edge(10,55).
edge(10,56).
edge(10,58).
edge(10,59).
edge(10,60).
edge(10,61).
edge(10,62).
edge(10,63).
edge(10,64).
edge(10,66).
edge(10,69).
edge(10,71).
edge(10,72).
edge(10,73).
edge(10,75).
edge(10,77).
edge(10,78).
edge(10,79).
edge(10,80).
edge(10,81).
edge(10,82).
edge(10,83).
edge(10,84).
edge(10,86).
edge(10,87).
edge(10,88).
edge(10,89).
edge(10,90).
edge(10,91).
edge(10,92).
edge(10,95).
edge(10,96).
edge(10,97).
edge(10,99).
edge(10,101).
edge(10,102).
edge(10,103).
edge(10,104).
edge(10,106).
edge(10,107).
edge(10,108).
edge(10,109).
edge(10,111).
edge(10,112).
edge(10,113).
edge(10,116).
edge(10,117).
edge(10,118).
edge(10,121).
edge(10,122).
edge(10,123).
edge(10,124).
edge(10,125).
edge(10,126).
edge(10,127).
edge(10,128).
edge(10,129).
edge(10,130).
edge(10,131).
edge(10,132).
edge(10,133).
edge(10,134).
edge(10,135).
edge(10,136).
edge(10,138).
edge(10,139).
edge(10,140).
edge(10,142).
edge(10,143).
edge(10,144).
edge(10,146).
edge(10,148).
edge(10,149).
edge(10,150).
edge(10,151).
edge(10,152).
edge(10,154).
edge(10,155).
edge(10,156).
edge(10,157).
edge(10,158).
edge(10,159).
edge(10,160).
edge(10,161).
edge(10,162).
edge(10,163).
edge(10,164).
edge(10,165).
edge(10,166).
edge(10,167).
edge(10,168).
edge(10,169).
edge(10,170).
edge(10,171).
edge(10,174).
edge(10,176).
edge(10,177).
edge(10,179).
edge(10,180).
edge(10,181).
edge(10,182).
edge(10,185).
edge(10,186).
edge(10,187).
edge(10,188).
edge(10,189).
edge(10,190).
edge(10,191).
edge(10,194).
edge(10,196).
edge(10,197).
edge(10,198).
edge(10,199).
edge(10,200).
edge(10,201).
edge(10,202).
edge(10,204).
edge(10,205).
edge(10,206).
edge(10,207).
edge(10,208).
edge(10,210).
edge(10,211).
edge(10,213).
edge(10,214).
edge(10,218).
edge(10,219).
edge(10,220).
edge(10,221).
edge(10,223).
edge(10,224).
edge(10,225).
edge(10,226).
edge(10,227).
edge(10,229).
edge(10,230).
edge(10,231).
edge(10,233).
edge(10,234).
edge(10,235).
edge(10,237).
edge(10,238).
edge(10,239).
edge(10,241).
edge(10,243).
edge(10,244).
edge(10,245).
edge(10,247).
edge(10,248).
edge(10,249).
edge(10,250).
edge(11,13).
edge(11,16).
edge(11,17).
edge(11,19).
edge(11,21).
edge(11,22).
edge(11,23).
edge(11,24).
edge(11,28).
edge(11,29).
edge(11,30).
edge(11,32).
edge(11,33).
edge(11,36).
edge(11,37).
edge(11,38).
edge(11,39).
edge(11,40).
edge(11,42).
edge(11,44).
edge(11,46).
edge(11,48).
edge(11,49).
edge(11,51).
edge(11,52).
edge(11,55).
edge(11,56).
edge(11,57).
edge(11,58).
edge(11,60).
edge(11,62).
edge(11,64).
edge(11,65).
edge(11,67).
edge(11,68).
edge(11,69).
edge(11,71).
edge(11,73).
edge(11,74).
edge(11,75).
edge(11,77).
edge(11,85).
edge(11,86).
edge(11,87).
edge(11,88).
edge(11,89).
edge(11,90).
edge(11,95).
edge(11,96).
edge(11,98).
edge(11,99).
edge(11,101).
edge(11,103).
edge(11,104).
edge(11,105).
edge(11,106).
edge(11,107).
edge(11,108).
edge(11,110).
edge(11,111).
edge(11,113).
edge(11,114).
edge(11,116).
edge(11,117).
edge(11,120).
edge(11,123).
edge(11,124).
edge(11,126).
edge(11,127).
edge(11,129).
edge(11,130).
edge(11,133).
edge(11,138).
edge(11,139).
edge(11,140).
edge(11,141).
edge(11,142).
edge(11,144).
edge(11,145).
edge(11,146).
edge(11,149).
edge(11,150).
edge(11,151).
edge(11,152).
edge(11,156).
edge(11,158).
edge(11,159).
edge(11,160).
edge(11,161).
edge(11,162).
edge(11,164).
edge(11,165).
edge(11,166).
edge(11,168).
edge(11,169).
edge(11,171).
edge(11,172).
edge(11,173).
edge(11,174).
edge(11,175).
edge(11,177).
edge(11,179).
edge(11,180).
edge(11,181).
edge(11,183).
edge(11,185).
edge(11,186).
edge(11,187).
edge(11,188).
edge(11,190).
edge(11,193).
edge(11,195).
edge(11,197).
edge(11,199).
edge(11,200).
edge(11,201).
edge(11,203).
edge(11,206).
edge(11,208).
edge(11,209).
edge(11,211).
edge(11,213).
edge(11,215).
edge(11,217).
edge(11,218).
edge(11,219).
edge(11,220).
edge(11,221).
edge(11,222).
edge(11,223).
edge(11,226).
edge(11,227).
edge(11,228).
edge(11,229).
edge(11,230).
edge(11,231).
edge(11,232).
edge(11,234).
edge(11,239).
edge(11,240).
edge(11,241).
edge(11,244).
edge(11,249).
edge(12,13).
edge(12,14).
edge(12,15).
edge(12,16).
edge(12,18).
edge(12,21).
edge(12,24).
edge(12,25).
edge(12,26).
edge(12,27).
edge(12,31).
edge(12,32).
edge(12,33).
edge(12,36).
edge(12,37).
edge(12,38).
edge(12,39).
edge(12,42).
edge(12,44).
edge(12,46).
edge(12,47).
edge(12,48).
edge(12,49).
edge(12,50).
edge(12,51).
edge(12,52).
edge(12,55).
edge(12,56).
edge(12,58).
edge(12,60).
edge(12,61).
edge(12,62).
edge(12,63).
edge(12,65).
edge(12,68).
edge(12,70).
edge(12,71).
edge(12,72).
edge(12,75).
edge(12,77).
edge(12,81).
edge(12,82).
edge(12,83).
edge(12,85).
edge(12,86).
edge(12,88).
edge(12,90).
edge(12,91).
edge(12,93).
edge(12,95).
edge(12,96).
edge(12,97).
edge(12,99).
edge(12,101).
edge(12,102).
edge(12,103).
edge(12,104).
edge(12,105).
edge(12,106).
edge(12,110).
edge(12,111).
edge(12,112).
edge(12,114).
edge(12,115).
edge(12,116).
edge(12,123).
edge(12,126).
edge(12,127).
edge(12,128).
edge(12,130).
edge(12,131).
edge(12,132).
edge(12,135).
edge(12,136).
edge(12,137).
edge(12,138).
edge(12,140).
edge(12,141).
edge(12,142).
edge(12,143).
edge(12,144).
edge(12,146).
edge(12,147).
edge(12,149).
edge(12,150).
edge(12,153).
edge(12,154).
edge(12,155).
edge(12,156).
edge(12,157).
edge(12,158).
edge(12,159).
edge(12,160).
edge(12,162).
edge(12,163).
edge(12,165).
edge(12,167).
edge(12,171).
edge(12,172).
edge(12,173).
edge(12,174).
edge(12,175).
edge(12,178).
edge(12,179).
edge(12,180).
edge(12,182).
edge(12,183).
edge(12,185).
edge(12,188).
edge(12,189).
edge(12,190).
edge(12,191).
edge(12,193).
edge(12,194).
edge(12,195).
edge(12,196).
edge(12,199).
edge(12,200).
edge(12,201).
edge(12,202).
edge(12,203).
edge(12,204).
edge(12,206).
edge(12,208).
edge(12,210).
edge(12,211).
edge(12,214).
edge(12,215).
edge(12,216).
edge(12,219).
edge(12,223).
edge(12,224).
edge(12,225).
edge(12,227).
edge(12,228).
edge(12,230).
edge(12,232).
edge(12,233).
edge(12,234).
edge(12,236).
edge(12,237).
edge(12,238).
edge(12,240).
edge(12,241).
edge(12,243).
edge(12,245).
edge(12,249).
edge(12,250).
edge(13,14).
edge(13,15).
edge(13,16).
edge(13,18).
edge(13,19).
edge(13,20).
edge(13,21).
edge(13,23).
edge(13,25).
edge(13,26).
edge(13,28).
edge(13,29).
edge(13,30).
edge(13,32).
edge(13,33).
edge(13,36).
edge(13,37).
edge(13,38).
edge(13,40).
edge(13,41).
edge(13,42).
edge(13,43).
edge(13,44).
edge(13,45).
edge(13,46).
edge(13,47).
edge(13,49).
edge(13,50).
edge(13,51).
edge(13,52).
edge(13,55).
edge(13,56).
edge(13,57).
edge(13,59).
edge(13,60).
edge(13,61).
edge(13,63).
edge(13,64).
edge(13,65).
edge(13,68).
edge(13,69).
edge(13,70).
edge(13,71).
edge(13,72).
edge(13,74).
edge(13,75).
edge(13,76).
edge(13,77).
edge(13,78).
edge(13,79).
edge(13,80).
edge(13,82).
edge(13,83).
edge(13,84).
edge(13,85).
edge(13,86).
edge(13,87).
edge(13,89).
edge(13,90).
edge(13,91).
edge(13,92).
edge(13,93).
edge(13,94).
edge(13,95).
edge(13,97).
edge(13,98).
edge(13,100).
edge(13,101).
edge(13,110).
edge(13,112).
edge(13,114).
edge(13,115).
edge(13,116).
edge(13,117).
edge(13,118).
edge(13,119).
edge(13,120).
edge(13,121).
edge(13,124).
edge(13,125).
edge(13,126).
edge(13,127).
edge(13,128).
edge(13,129).
edge(13,130).
edge(13,131).
edge(13,133).
edge(13,134).
edge(13,135).
edge(13,136).
edge(13,138).
edge(13,139).
edge(13,140).
edge(13,141).
edge(13,142).
edge(13,143).
edge(13,144).
edge(13,146).
edge(13,147).
edge(13,148).
edge(13,149).
edge(13,150).
edge(13,154).
edge(13,155).
edge(13,156).
edge(13,157).
edge(13,159).
edge(13,160).
edge(13,161).
edge(13,162).
edge(13,163).
edge(13,164).
edge(13,165).
edge(13,166).
edge(13,167).
edge(13,168).
edge(13,169).
edge(13,170).
edge(13,173).
edge(13,174).
edge(13,175).
edge(13,176).
edge(13,177).
edge(13,180).
edge(13,181).
edge(13,182).
edge(13,183).
edge(13,184).
edge(13,185).
edge(13,186).
edge(13,187).
edge(13,191).
edge(13,192).
edge(13,193).
edge(13,194).
edge(13,198).
edge(13,199).
edge(13,202).
edge(13,203).
edge(13,204).
edge(13,205).
edge(13,206).
edge(13,207).
edge(13,208).
edge(13,210).
edge(13,211).
edge(13,212).
edge(13,214).
edge(13,216).
edge(13,217).
edge(13,218).
edge(13,219).
edge(13,220).
edge(13,221).
edge(13,222).
edge(13,223).
edge(13,224).
edge(13,226).
edge(13,228).
edge(13,231).
edge(13,232).
edge(13,234).
edge(13,235).
edge(13,236).
edge(13,237).
edge(13,238).
edge(13,241).
edge(13,243).
edge(13,244).
edge(13,245).
edge(13,246).
edge(13,247).
edge(13,248).
edge(13,250).
edge(14,15).
edge(14,16).
edge(14,18).
edge(14,21).
edge(14,22).
edge(14,23).
edge(14,26).
edge(14,27).
edge(14,28).
edge(14,30).
edge(14,31).
edge(14,32).
edge(14,33).
edge(14,34).
edge(14,36).
edge(14,37).
edge(14,39).
edge(14,40).
edge(14,41).
edge(14,42).
edge(14,43).
edge(14,44).
edge(14,45).
edge(14,46).
edge(14,48).
edge(14,49).
edge(14,51).
edge(14,52).
edge(14,53).
edge(14,55).
edge(14,56).
edge(14,57).
edge(14,59).
edge(14,60).
edge(14,61).
edge(14,62).
edge(14,65).
edge(14,66).
edge(14,68).
edge(14,69).
edge(14,71).
edge(14,75).
edge(14,76).
edge(14,77).
edge(14,78).
edge(14,79).
edge(14,83).
edge(14,84).
edge(14,85).
edge(14,86).
edge(14,87).
edge(14,88).
edge(14,90).
edge(14,91).
edge(14,93).
edge(14,94).
edge(14,95).
edge(14,96).
edge(14,97).
edge(14,98).
edge(14,99).
edge(14,101).
edge(14,104).
edge(14,105).
edge(14,107).
edge(14,109).
edge(14,110).
edge(14,113).
edge(14,116).
edge(14,117).
edge(14,118).
edge(14,119).
edge(14,120).
edge(14,121).
edge(14,123).
edge(14,124).
edge(14,127).
edge(14,128).
edge(14,129).
edge(14,130).
edge(14,131).
edge(14,132).
edge(14,133).
edge(14,134).
edge(14,135).
edge(14,136).
edge(14,138).
edge(14,139).
edge(14,140).
edge(14,141).
edge(14,142).
edge(14,143).
edge(14,144).
edge(14,145).
edge(14,148).
edge(14,149).
edge(14,150).
edge(14,151).
edge(14,152).
edge(14,153).
edge(14,154).
edge(14,156).
edge(14,157).
edge(14,159).
edge(14,160).
edge(14,162).
edge(14,163).
edge(14,164).
edge(14,165).
edge(14,167).
edge(14,168).
edge(14,169).
edge(14,170).
edge(14,172).
edge(14,173).
edge(14,174).
edge(14,175).
edge(14,176).
edge(14,177).
edge(14,179).
edge(14,180).
edge(14,181).
edge(14,182).
edge(14,185).
edge(14,186).
edge(14,187).
edge(14,188).
edge(14,189).
edge(14,190).
edge(14,191).
edge(14,194).
edge(14,196).
edge(14,197).
edge(14,199).
edge(14,200).
edge(14,201).
edge(14,202).
edge(14,203).
edge(14,204).
edge(14,205).
edge(14,206).
edge(14,207).
edge(14,208).
edge(14,209).
edge(14,211).
edge(14,214).
edge(14,219).
edge(14,220).
edge(14,221).
edge(14,223).
edge(14,224).
edge(14,225).
edge(14,226).
edge(14,227).
edge(14,228).
edge(14,229).
edge(14,231).
edge(14,232).
edge(14,233).
edge(14,234).
edge(14,235).
edge(14,237).
edge(14,238).
edge(14,239).
edge(14,241).
edge(14,242).
edge(14,244).
edge(14,245).
edge(14,247).
edge(14,248).
edge(14,249).
edge(15,18).
edge(15,20).
edge(15,21).
edge(15,22).
edge(15,23).
edge(15,24).
edge(15,27).
edge(15,29).
edge(15,30).
edge(15,31).
edge(15,33).
edge(15,34).
edge(15,35).
edge(15,36).
edge(15,38).
edge(15,39).
edge(15,40).
edge(15,41).
edge(15,43).
edge(15,45).
edge(15,46).
edge(15,47).
edge(15,48).
edge(15,49).
edge(15,51).
edge(15,52).
edge(15,53).
edge(15,54).
edge(15,55).
edge(15,56).
edge(15,58).
edge(15,59).
edge(15,60).
edge(15,61).
edge(15,64).
edge(15,65).
edge(15,66).
edge(15,67).
edge(15,68).
edge(15,69).
edge(15,70).
edge(15,71).
edge(15,72).
edge(15,73).
edge(15,75).
edge(15,76).
edge(15,77).
edge(15,78).
edge(15,79).
edge(15,80).
edge(15,82).
edge(15,84).
edge(15,86).
edge(15,89).
edge(15,91).
edge(15,93).
edge(15,94).
edge(15,95).
edge(15,98).
edge(15,99).
edge(15,100).
edge(15,101).
edge(15,102).
edge(15,105).
edge(15,106).
edge(15,107).
edge(15,108).
edge(15,109).
edge(15,111).
edge(15,112).
edge(15,113).
edge(15,114).
edge(15,115).
edge(15,116).
edge(15,119).
edge(15,120).
edge(15,121).
edge(15,122).
edge(15,123).
edge(15,125).
edge(15,129).
edge(15,130).
edge(15,131).
edge(15,132).
edge(15,133).
edge(15,134).
edge(15,136).
edge(15,137).
edge(15,138).
edge(15,139).
edge(15,144).
edge(15,147).
edge(15,148).
edge(15,149).
edge(15,150).
edge(15,151).
edge(15,152).
edge(15,153).
edge(15,155).
edge(15,156).
edge(15,157).
edge(15,158).
edge(15,159).
edge(15,160).
edge(15,164).
edge(15,165).
edge(15,166).
edge(15,167).
edge(15,168).
edge(15,170).
edge(15,171).
edge(15,172).
edge(15,173).
edge(15,176).
edge(15,178).
edge(15,179).
edge(15,180).
edge(15,182).
edge(15,183).
edge(15,184).
edge(15,186).
edge(15,188).
edge(15,190).
edge(15,191).
edge(15,192).
edge(15,193).
edge(15,194).
edge(15,196).
edge(15,197).
edge(15,198).
edge(15,199).
edge(15,201).
edge(15,202).
edge(15,203).
edge(15,205).
edge(15,208).
edge(15,209).
edge(15,211).
edge(15,215).
edge(15,217).
edge(15,218).
edge(15,219).
edge(15,220).
edge(15,221).
edge(15,222).
edge(15,223).
edge(15,226).
edge(15,229).
edge(15,230).
edge(15,231).
edge(15,233).
edge(15,236).
edge(15,237).
edge(15,239).
edge(15,242).
edge(15,243).
edge(15,244).
edge(15,245).
edge(15,246).
edge(15,247).
edge(15,248).
edge(15,249).
edge(15,250).
edge(16,19).
edge(16,20).
edge(16,21).
edge(16,22).
edge(16,23).
edge(16,24).
edge(16,25).
edge(16,26).
edge(16,27).
edge(16,28).
edge(16,29).
edge(16,31).
edge(16,32).
edge(16,34).
edge(16,36).
edge(16,38).
edge(16,40).
edge(16,41).
edge(16,43).
edge(16,44).
edge(16,45).
edge(16,46).
edge(16,48).
edge(16,52).
edge(16,53).
edge(16,54).
edge(16,56).
edge(16,59).
edge(16,61).
edge(16,63).
edge(16,65).
edge(16,67).
edge(16,68).
edge(16,71).
edge(16,73).
edge(16,74).
edge(16,75).
edge(16,76).
edge(16,78).
edge(16,79).
edge(16,80).
edge(16,82).
edge(16,83).
edge(16,87).
edge(16,88).
edge(16,89).
edge(16,90).
edge(16,92).
edge(16,97).
edge(16,98).
edge(16,100).
edge(16,101).
edge(16,102).
edge(16,104).
edge(16,107).
edge(16,108).
edge(16,111).
edge(16,113).
edge(16,115).
edge(16,119).
edge(16,128).
edge(16,129).
edge(16,131).
edge(16,132).
edge(16,133).
edge(16,134).
edge(16,135).
edge(16,136).
edge(16,140).
edge(16,141).
edge(16,145).
edge(16,146).
edge(16,148).
edge(16,149).
edge(16,150).
edge(16,152).
edge(16,155).
edge(16,156).
edge(16,157).
edge(16,159).
edge(16,160).
edge(16,161).
edge(16,162).
edge(16,163).
edge(16,164).
edge(16,165).
edge(16,166).
edge(16,168).
edge(16,170).
edge(16,172).
edge(16,173).
edge(16,174).
edge(16,179).
edge(16,180).
edge(16,181).
edge(16,182).
edge(16,185).
edge(16,186).
edge(16,187).
edge(16,191).
edge(16,192).
edge(16,193).
edge(16,194).
edge(16,195).
edge(16,197).
edge(16,198).
edge(16,199).
edge(16,200).
edge(16,201).
edge(16,202).
edge(16,205).
edge(16,206).
edge(16,207).
edge(16,208).
edge(16,209).
edge(16,212).
edge(16,213).
edge(16,214).
edge(16,215).
edge(16,216).
edge(16,217).
edge(16,218).
edge(16,222).
edge(16,223).
edge(16,226).
edge(16,227).
edge(16,228).
edge(16,229).
edge(16,231).
edge(16,232).
edge(16,233).
edge(16,234).
edge(16,235).
edge(16,236).
edge(16,238).
edge(16,240).
edge(16,243).
edge(16,244).
edge(16,245).
edge(16,249).
edge(16,250).
edge(17,19).
edge(17,22).
edge(17,23).
edge(17,24).
edge(17,25).
edge(17,26).
edge(17,28).
edge(17,29).
edge(17,31).
edge(17,33).
edge(17,34).
edge(17,37).
edge(17,40).
edge(17,42).
edge(17,43).
edge(17,46).
edge(17,47).
edge(17,49).
edge(17,51).
edge(17,54).
edge(17,55).
edge(17,56).
edge(17,59).
edge(17,60).
edge(17,61).
edge(17,62).
edge(17,63).
edge(17,65).
edge(17,67).
edge(17,69).
edge(17,71).
edge(17,72).
edge(17,73).
edge(17,74).
edge(17,75).
edge(17,77).
edge(17,78).
edge(17,81).
edge(17,83).
edge(17,84).
edge(17,85).
edge(17,86).
edge(17,88).
edge(17,89).
edge(17,90).
edge(17,91).
edge(17,93).
edge(17,95).
edge(17,97).
edge(17,98).
edge(17,99).
edge(17,100).
edge(17,101).
edge(17,102).
edge(17,104).
edge(17,106).
edge(17,107).
edge(17,108).
edge(17,109).
edge(17,110).
edge(17,111).
edge(17,113).
edge(17,114).
edge(17,120).
edge(17,121).
edge(17,123).
edge(17,125).
edge(17,126).
edge(17,127).
edge(17,128).
edge(17,129).
edge(17,131).
edge(17,132).
edge(17,134).
edge(17,136).
edge(17,137).
edge(17,138).
edge(17,141).
edge(17,143).
edge(17,144).
edge(17,145).
edge(17,149).
edge(17,150).
edge(17,153).
edge(17,155).
edge(17,161).
edge(17,163).
edge(17,164).
edge(17,166).
edge(17,167).
edge(17,168).
edge(17,170).
edge(17,171).
edge(17,173).
edge(17,176).
edge(17,177).
edge(17,178).
edge(17,179).
edge(17,180).
edge(17,182).
edge(17,183).
edge(17,184).
edge(17,185).
edge(17,188).
edge(17,189).
edge(17,190).
edge(17,192).
edge(17,194).
edge(17,197).
edge(17,198).
edge(17,200).
edge(17,201).
edge(17,202).
edge(17,203).
edge(17,204).
edge(17,205).
edge(17,206).
edge(17,207).
edge(17,208).
edge(17,209).
edge(17,210).
edge(17,211).
edge(17,214).
edge(17,215).
edge(17,216).
edge(17,218).
edge(17,219).
edge(17,221).
edge(17,222).
edge(17,224).
edge(17,225).
edge(17,226).
edge(17,227).
edge(17,229).
edge(17,230).
edge(17,231).
edge(17,232).
edge(17,233).
edge(17,235).
edge(17,237).
edge(17,238).
edge(17,239).
edge(17,241).
edge(17,243).
edge(17,245).
edge(17,250).
edge(18,20).
edge(18,21).
edge(18,22).
edge(18,24).
edge(18,25).
edge(18,27).
edge(18,28).
edge(18,29).
edge(18,30).
edge(18,31).
edge(18,33).
edge(18,34).
edge(18,36).
edge(18,37).
edge(18,38).
edge(18,39).
edge(18,40).
edge(18,41).
edge(18,44).
edge(18,46).
edge(18,47).
edge(18,50).
edge(18,51).
edge(18,53).
edge(18,56).
edge(18,58).
edge(18,60).
edge(18,61).
edge(18,62).
edge(18,65).
edge(18,66).
edge(18,67).
edge(18,75).
edge(18,77).
edge(18,78).
edge(18,79).
edge(18,80).
edge(18,83).
edge(18,84).
edge(18,85).
edge(18,86).
edge(18,87).
edge(18,89).
edge(18,90).
edge(18,91).
edge(18,94).
edge(18,95).
edge(18,97).
edge(18,99).
edge(18,101).
edge(18,104).
edge(18,108).
edge(18,109).
edge(18,113).
edge(18,115).
edge(18,117).
edge(18,121).
edge(18,122).
edge(18,123).
edge(18,124).
edge(18,126).
edge(18,128).
edge(18,130).
edge(18,131).
edge(18,134).
edge(18,135).
edge(18,138).
edge(18,139).
edge(18,141).
edge(18,142).
edge(18,144).
edge(18,146).
edge(18,148).
edge(18,149).
edge(18,150).
edge(18,151).
edge(18,152).
edge(18,155).
edge(18,159).
edge(18,161).
edge(18,162).
edge(18,164).
edge(18,167).
edge(18,168).
edge(18,169).
edge(18,170).
edge(18,171).
edge(18,173).
edge(18,174).
edge(18,175).
edge(18,176).
edge(18,179).
edge(18,182).
edge(18,187).
edge(18,188).
edge(18,189).
edge(18,190).
edge(18,191).
edge(18,193).
edge(18,196).
edge(18,197).
edge(18,199).
edge(18,200).
edge(18,201).
edge(18,202).
edge(18,203).
edge(18,206).
edge(18,207).
edge(18,208).
edge(18,209).
edge(18,213).
edge(18,215).
edge(18,217).
edge(18,218).
edge(18,219).
edge(18,221).
edge(18,224).
edge(18,225).
edge(18,226).
edge(18,227).
edge(18,228).
edge(18,229).
edge(18,231).
edge(18,232).
edge(18,233).
edge(18,236).
edge(18,238).
edge(18,239).
edge(18,240).
edge(18,241).
edge(18,243).
edge(18,244).
edge(18,245).
edge(18,246).
edge(18,248).
edge(18,249).
edge(18,250).
edge(19,20).
edge(19,21).
edge(19,23).
edge(19,25).
edge(19,30).
edge(19,32).
edge(19,35).
edge(19,40).
edge(19,42).
edge(19,43).
edge(19,44).
edge(19,45).
edge(19,46).
edge(19,48).
edge(19,50).
edge(19,52).
edge(19,53).
edge(19,54).
edge(19,56).
edge(19,57).
edge(19,61).
edge(19,62).
edge(19,63).
edge(19,64).
edge(19,66).
edge(19,67).
edge(19,69).
edge(19,70).
edge(19,71).
edge(19,72).
edge(19,75).
edge(19,77).
edge(19,78).
edge(19,80).
edge(19,82).
edge(19,86).
edge(19,87).
edge(19,90).
edge(19,91).
edge(19,92).
edge(19,94).
edge(19,95).
edge(19,96).
edge(19,99).
edge(19,102).
edge(19,104).
edge(19,105).
edge(19,107).
edge(19,109).
edge(19,110).
edge(19,111).
edge(19,114).
edge(19,119).
edge(19,120).
edge(19,122).
edge(19,123).
edge(19,124).
edge(19,125).
edge(19,127).
edge(19,129).
edge(19,130).
edge(19,131).
edge(19,133).
edge(19,135).
edge(19,136).
edge(19,137).
edge(19,139).
edge(19,140).
edge(19,141).
edge(19,142).
edge(19,144).
edge(19,146).
edge(19,147).
edge(19,148).
edge(19,150).
edge(19,151).
edge(19,153).
edge(19,155).
edge(19,156).
edge(19,158).
edge(19,159).
edge(19,160).
edge(19,163).
edge(19,165).
edge(19,167).
edge(19,170).
edge(19,178).
edge(19,181).
edge(19,182).
edge(19,183).
edge(19,184).
edge(19,185).
edge(19,188).
edge(19,189).
edge(19,193).
edge(19,194).
edge(19,195).
edge(19,196).
edge(19,198).
edge(19,199).
edge(19,205).
edge(19,207).
edge(19,208).
edge(19,211).
edge(19,212).
edge(19,213).
edge(19,215).
edge(19,217).
edge(19,219).
edge(19,220).
edge(19,221).
edge(19,223).
edge(19,224).
edge(19,225).
edge(19,226).
edge(19,230).
edge(19,232).
edge(19,233).
edge(19,235).
edge(19,238).
edge(19,240).
edge(19,242).
edge(19,243).
edge(19,246).
edge(19,248).
edge(19,249).
edge(19,250).
edge(20,27).
edge(20,29).
edge(20,30).
edge(20,31).
edge(20,35).
edge(20,37).
edge(20,39).
edge(20,41).
edge(20,42).
edge(20,43).
edge(20,44).
edge(20,46).
edge(20,49).
edge(20,51).
edge(20,52).
edge(20,53).
edge(20,54).
edge(20,56).
edge(20,57).
edge(20,58).
edge(20,59).
edge(20,60).
edge(20,61).
edge(20,64).
edge(20,65).
edge(20,66).
edge(20,67).
edge(20,68).
edge(20,69).
edge(20,70).
edge(20,74).
edge(20,75).
edge(20,76).
edge(20,77).
edge(20,78).
edge(20,79).
edge(20,80).
edge(20,81).
edge(20,82).
edge(20,83).
edge(20,84).
edge(20,85).
edge(20,89).
edge(20,90).
edge(20,91).
edge(20,93).
edge(20,94).
edge(20,95).
edge(20,98).
edge(20,99).
edge(20,100).
edge(20,101).
edge(20,102).
edge(20,103).
edge(20,104).
edge(20,105).
edge(20,107).
edge(20,108).
edge(20,110).
edge(20,112).
edge(20,113).
edge(20,118).
edge(20,119).
edge(20,123).
edge(20,125).
edge(20,126).
edge(20,127).
edge(20,129).
edge(20,130).
edge(20,131).
edge(20,133).
edge(20,134).
edge(20,135).
edge(20,137).
edge(20,141).
edge(20,142).
edge(20,144).
edge(20,145).
edge(20,146).
edge(20,147).
edge(20,149).
edge(20,151).
edge(20,152).
edge(20,154).
edge(20,156).
edge(20,157).
edge(20,158).
edge(20,159).
edge(20,160).
edge(20,161).
edge(20,162).
edge(20,163).
edge(20,164).
edge(20,165).
edge(20,166).
edge(20,167).
edge(20,168).
edge(20,169).
edge(20,172).
edge(20,173).
edge(20,175).
edge(20,177).
edge(20,179).
edge(20,183).
edge(20,184).
edge(20,185).
edge(20,186).
edge(20,192).
edge(20,194).
edge(20,195).
edge(20,196).
edge(20,199).
edge(20,202).
edge(20,203).
edge(20,204).
edge(20,207).
edge(20,209).
edge(20,210).
edge(20,211).
edge(20,212).
edge(20,213).
edge(20,214).
edge(20,216).
edge(20,217).
edge(20,218).
edge(20,219).
edge(20,220).
edge(20,221).
edge(20,222).
edge(20,223).
edge(20,225).
edge(20,226).
edge(20,227).
edge(20,230).
edge(20,231).
edge(20,233).
edge(20,235).
edge(20,237).
edge(20,239).
edge(20,241).
edge(20,243).
edge(20,244).
edge(20,245).
edge(20,246).
edge(20,248).
edge(20,250).
edge(21,22).
edge(21,23).
edge(21,24).
edge(21,25).
edge(21,26).
edge(21,28).
edge(21,29).
edge(21,30).
edge(21,32).
edge(21,34).
edge(21,37).
edge(21,38).
edge(21,40).
edge(21,41).
edge(21,42).
edge(21,43).
edge(21,44).
edge(21,45).
edge(21,46).
edge(21,49).
edge(21,50).
edge(21,51).
edge(21,52).
edge(21,55).
edge(21,58).
edge(21,59).
edge(21,60).
edge(21,61).
edge(21,62).
edge(21,65).
edge(21,69).
edge(21,70).
edge(21,74).
edge(21,75).
edge(21,76).
edge(21,77).
edge(21,78).
edge(21,79).
edge(21,80).
edge(21,81).
edge(21,82).
edge(21,84).
edge(21,89).
edge(21,90).
edge(21,91).
edge(21,92).
edge(21,94).
edge(21,95).
edge(21,96).
edge(21,97).
edge(21,99).
edge(21,102).
edge(21,104).
edge(21,105).
edge(21,106).
edge(21,107).
edge(21,108).
edge(21,109).
edge(21,110).
edge(21,112).
edge(21,116).
edge(21,117).
edge(21,120).
edge(21,121).
edge(21,122).
edge(21,123).
edge(21,124).
edge(21,125).
edge(21,126).
edge(21,127).
edge(21,128).
edge(21,129).
edge(21,130).
edge(21,131).
edge(21,133).
edge(21,134).
edge(21,135).
edge(21,136).
edge(21,139).
edge(21,140).
edge(21,141).
edge(21,142).
edge(21,144).
edge(21,145).
edge(21,146).
edge(21,147).
edge(21,148).
edge(21,150).
edge(21,151).
edge(21,152).
edge(21,153).
edge(21,154).
edge(21,155).
edge(21,156).
edge(21,157).
edge(21,159).
edge(21,160).
edge(21,161).
edge(21,162).
edge(21,163).
edge(21,164).
edge(21,165).
edge(21,166).
edge(21,168).
edge(21,169).
edge(21,171).
edge(21,174).
edge(21,175).
edge(21,177).
edge(21,178).
edge(21,180).
edge(21,181).
edge(21,183).
edge(21,184).
edge(21,186).
edge(21,190).
edge(21,191).
edge(21,194).
edge(21,195).
edge(21,196).
edge(21,197).
edge(21,198).
edge(21,199).
edge(21,201).
edge(21,202).
edge(21,204).
edge(21,205).
edge(21,206).
edge(21,207).
edge(21,208).
edge(21,209).
edge(21,211).
edge(21,212).
edge(21,213).
edge(21,214).
edge(21,215).
edge(21,218).
edge(21,219).
edge(21,220).
edge(21,222).
edge(21,223).
edge(21,224).
edge(21,226).
edge(21,227).
edge(21,230).
edge(21,231).
edge(21,233).
edge(21,234).
edge(21,235).
edge(21,236).
edge(21,237).
edge(21,238).
edge(21,240).
edge(21,241).
edge(21,242).
edge(21,243).
edge(21,244).
edge(21,245).
edge(21,247).
edge(21,248).
edge(21,249).
edge(21,250).
edge(22,23).
edge(22,24).
edge(22,25).
edge(22,27).
edge(22,28).
edge(22,30).
edge(22,31).
edge(22,34).
edge(22,35).
edge(22,36).
edge(22,37).
edge(22,39).
edge(22,40).
edge(22,45).
edge(22,46).
edge(22,47).
edge(22,48).
edge(22,49).
edge(22,50).
edge(22,51).
edge(22,52).
edge(22,54).
edge(22,55).
edge(22,59).
edge(22,60).
edge(22,62).
edge(22,64).
edge(22,67).
edge(22,68).
edge(22,69).
edge(22,70).
edge(22,72).
edge(22,73).
edge(22,75).
edge(22,78).
edge(22,79).
edge(22,80).
edge(22,81).
edge(22,82).
edge(22,83).
edge(22,85).
edge(22,86).
edge(22,87).
edge(22,91).
edge(22,92).
edge(22,94).
edge(22,95).
edge(22,97).
edge(22,99).
edge(22,100).
edge(22,101).
edge(22,102).
edge(22,103).
edge(22,104).
edge(22,105).
edge(22,106).
edge(22,107).
edge(22,108).
edge(22,109).
edge(22,111).
edge(22,112).
edge(22,114).
edge(22,116).
edge(22,119).
edge(22,120).
edge(22,121).
edge(22,122).
edge(22,123).
edge(22,124).
edge(22,125).
edge(22,128).
edge(22,129).
edge(22,130).
edge(22,133).
edge(22,134).
edge(22,138).
edge(22,139).
edge(22,140).
edge(22,141).
edge(22,143).
edge(22,144).
edge(22,146).
edge(22,147).
edge(22,149).
edge(22,150).
edge(22,152).
edge(22,153).
edge(22,154).
edge(22,156).
edge(22,157).
edge(22,158).
edge(22,161).
edge(22,162).
edge(22,164).
edge(22,165).
edge(22,167).
edge(22,168).
edge(22,169).
edge(22,170).
edge(22,171).
edge(22,174).
edge(22,179).
edge(22,181).
edge(22,183).
edge(22,184).
edge(22,186).
edge(22,187).
edge(22,189).
edge(22,192).
edge(22,195).
edge(22,196).
edge(22,197).
edge(22,199).
edge(22,200).
edge(22,201).
edge(22,202).
edge(22,203).
edge(22,204).
edge(22,209).
edge(22,210).
edge(22,211).
edge(22,212).
edge(22,214).
edge(22,216).
edge(22,217).
edge(22,218).
edge(22,219).
edge(22,223).
edge(22,225).
edge(22,227).
edge(22,228).
edge(22,230).
edge(22,232).
edge(22,233).
edge(22,239).
edge(22,240).
edge(22,242).
edge(22,243).
edge(22,244).
edge(22,246).
edge(22,247).
edge(23,24).
edge(23,27).
edge(23,28).
edge(23,30).
edge(23,32).
edge(23,35).
edge(23,36).
edge(23,37).
edge(23,38).
edge(23,40).
edge(23,42).
edge(23,43).
edge(23,44).
edge(23,45).
edge(23,46).
edge(23,47).
edge(23,49).
edge(23,50).
edge(23,51).
edge(23,52).
edge(23,53).
edge(23,55).
edge(23,56).
edge(23,57).
edge(23,58).
edge(23,59).
edge(23,60).
edge(23,61).
edge(23,62).
edge(23,63).
edge(23,64).
edge(23,65).
edge(23,66).
edge(23,67).
edge(23,68).
edge(23,69).
edge(23,72).
edge(23,73).
edge(23,74).
edge(23,75).
edge(23,76).
edge(23,77).
edge(23,78).
edge(23,79).
edge(23,80).
edge(23,81).
edge(23,84).
edge(23,85).
edge(23,86).
edge(23,88).
edge(23,90).
edge(23,92).
edge(23,93).
edge(23,95).
edge(23,97).
edge(23,98).
edge(23,100).
edge(23,104).
edge(23,108).
edge(23,109).
edge(23,110).
edge(23,112).
edge(23,114).
edge(23,116).
edge(23,117).
edge(23,119).
edge(23,120).
edge(23,121).
edge(23,123).
edge(23,124).
edge(23,125).
edge(23,126).
edge(23,127).
edge(23,128).
edge(23,130).
edge(23,131).
edge(23,132).
edge(23,133).
edge(23,134).
edge(23,135).
edge(23,138).
edge(23,140).
edge(23,142).
edge(23,144).
edge(23,145).
edge(23,146).
edge(23,147).
edge(23,148).
edge(23,150).
edge(23,151).
edge(23,153).
edge(23,154).
edge(23,155).
edge(23,157).
edge(23,159).
edge(23,160).
edge(23,161).
edge(23,162).
edge(23,163).
edge(23,164).
edge(23,165).
edge(23,169).
edge(23,170).
edge(23,173).
edge(23,174).
edge(23,175).
edge(23,177).
edge(23,178).
edge(23,180).
edge(23,181).
edge(23,185).
edge(23,186).
edge(23,189).
edge(23,190).
edge(23,191).
edge(23,193).
edge(23,194).
edge(23,196).
edge(23,197).
edge(23,198).
edge(23,199).
edge(23,201).
edge(23,202).
edge(23,203).
edge(23,206).
edge(23,207).
edge(23,208).
edge(23,209).
edge(23,211).
edge(23,212).
edge(23,213).
edge(23,215).
edge(23,216).
edge(23,217).
edge(23,218).
edge(23,219).
edge(23,221).
edge(23,222).
edge(23,224).
edge(23,225).
edge(23,226).
edge(23,228).
edge(23,229).
edge(23,231).
edge(23,232).
edge(23,234).
edge(23,235).
edge(23,236).
edge(23,237).
edge(23,238).
edge(23,239).
edge(23,240).
edge(23,241).
edge(23,244).
edge(23,245).
edge(23,246).
edge(23,250).
edge(24,25).
edge(24,29).
edge(24,30).
edge(24,31).
edge(24,34).
edge(24,35).
edge(24,37).
edge(24,39).
edge(24,41).
edge(24,42).
edge(24,43).
edge(24,44).
edge(24,46).
edge(24,47).
edge(24,49).
edge(24,50).
edge(24,51).
edge(24,52).
edge(24,56).
edge(24,57).
edge(24,58).
edge(24,59).
edge(24,61).
edge(24,63).
edge(24,65).
edge(24,66).
edge(24,68).
edge(24,71).
edge(24,76).
edge(24,82).
edge(24,85).
edge(24,86).
edge(24,87).
edge(24,88).
edge(24,89).
edge(24,90).
edge(24,91).
edge(24,93).
edge(24,95).
edge(24,97).
edge(24,98).
edge(24,99).
edge(24,100).
edge(24,104).
edge(24,105).
edge(24,106).
edge(24,107).
edge(24,108).
edge(24,110).
edge(24,111).
edge(24,113).
edge(24,114).
edge(24,115).
edge(24,116).
edge(24,121).
edge(24,122).
edge(24,124).
edge(24,125).
edge(24,129).
edge(24,130).
edge(24,131).
edge(24,132).
edge(24,133).
edge(24,136).
edge(24,138).
edge(24,140).
edge(24,141).
edge(24,142).
edge(24,144).
edge(24,145).
edge(24,146).
edge(24,152).
edge(24,153).
edge(24,157).
edge(24,158).
edge(24,160).
edge(24,162).
edge(24,163).
edge(24,164).
edge(24,165).
edge(24,166).
edge(24,167).
edge(24,168).
edge(24,169).
edge(24,170).
edge(24,171).
edge(24,172).
edge(24,173).
edge(24,174).
edge(24,175).
edge(24,178).
edge(24,180).
edge(24,181).
edge(24,185).
edge(24,186).
edge(24,187).
edge(24,189).
edge(24,190).
edge(24,192).
edge(24,194).
edge(24,195).
edge(24,196).
edge(24,197).
edge(24,198).
edge(24,199).
edge(24,200).
edge(24,201).
edge(24,202).
edge(24,204).
edge(24,205).
edge(24,212).
edge(24,213).
edge(24,215).
edge(24,217).
edge(24,218).
edge(24,219).
edge(24,220).
edge(24,221).
edge(24,222).
edge(24,223).
edge(24,224).
edge(24,226).
edge(24,228).
edge(24,229).
edge(24,230).
edge(24,231).
edge(24,233).
edge(24,234).
edge(24,235).
edge(24,236).
edge(24,237).
edge(24,239).
edge(24,240).
edge(24,242).
edge(24,243).
edge(24,244).
edge(24,248).
edge(24,249).
edge(25,27).
edge(25,28).
edge(25,29).
edge(25,32).
edge(25,33).
edge(25,35).
edge(25,36).
edge(25,37).
edge(25,38).
edge(25,39).
edge(25,40).
edge(25,42).
edge(25,43).
edge(25,45).
edge(25,47).
edge(25,48).
edge(25,49).
edge(25,50).
edge(25,51).
edge(25,52).
edge(25,55).
edge(25,56).
edge(25,57).
edge(25,58).
edge(25,59).
edge(25,61).
edge(25,62).
edge(25,64).
edge(25,65).
edge(25,66).
edge(25,67).
edge(25,68).
edge(25,70).
edge(25,71).
edge(25,72).
edge(25,74).
edge(25,75).
edge(25,76).
edge(25,78).
edge(25,79).
edge(25,80).
edge(25,81).
edge(25,82).
edge(25,84).
edge(25,85).
edge(25,86).
edge(25,87).
edge(25,89).
edge(25,90).
edge(25,91).
edge(25,92).
edge(25,93).
edge(25,94).
edge(25,95).
edge(25,96).
edge(25,98).
edge(25,100).
edge(25,102).
edge(25,103).
edge(25,104).
edge(25,105).
edge(25,106).
edge(25,107).
edge(25,108).
edge(25,109).
edge(25,112).
edge(25,114).
edge(25,115).
edge(25,117).
edge(25,118).
edge(25,119).
edge(25,120).
edge(25,121).
edge(25,123).
edge(25,124).
edge(25,125).
edge(25,126).
edge(25,127).
edge(25,129).
edge(25,130).
edge(25,131).
edge(25,132).
edge(25,133).
edge(25,135).
edge(25,136).
edge(25,137).
edge(25,138).
edge(25,139).
edge(25,140).
edge(25,141).
edge(25,143).
edge(25,146).
edge(25,147).
edge(25,148).
edge(25,149).
edge(25,150).
edge(25,151).
edge(25,152).
edge(25,154).
edge(25,156).
edge(25,157).
edge(25,159).
edge(25,160).
edge(25,161).
edge(25,163).
edge(25,166).
edge(25,167).
edge(25,169).
edge(25,170).
edge(25,171).
edge(25,174).
edge(25,177).
edge(25,178).
edge(25,179).
edge(25,180).
edge(25,181).
edge(25,182).
edge(25,183).
edge(25,185).
edge(25,189).
edge(25,190).
edge(25,191).
edge(25,194).
edge(25,195).
edge(25,197).
edge(25,199).
edge(25,200).
edge(25,201).
edge(25,202).
edge(25,203).
edge(25,204).
edge(25,205).
edge(25,206).
edge(25,207).
edge(25,211).
edge(25,212).
edge(25,213).
edge(25,214).
edge(25,218).
edge(25,222).
edge(25,223).
edge(25,225).
edge(25,228).
edge(25,229).
edge(25,230).
edge(25,231).
edge(25,232).
edge(25,233).
edge(25,234).
edge(25,235).
edge(25,239).
edge(25,240).
edge(25,241).
edge(25,242).
edge(25,243).
edge(25,246).
edge(25,247).
edge(25,249).
edge(25,250).
edge(26,27).
edge(26,28).
edge(26,30).
edge(26,32).
edge(26,34).
edge(26,35).
edge(26,36).
edge(26,37).
edge(26,38).
edge(26,39).
edge(26,40).
edge(26,43).
edge(26,45).
edge(26,46).
edge(26,47).
edge(26,49).
edge(26,50).
edge(26,52).
edge(26,57).
edge(26,60).
edge(26,61).
edge(26,62).
edge(26,64).
edge(26,65).
edge(26,66).
edge(26,68).
edge(26,69).
edge(26,70).
edge(26,72).
edge(26,74).
edge(26,77).
edge(26,80).
edge(26,82).
edge(26,83).
edge(26,84).
edge(26,85).
edge(26,87).
edge(26,88).
edge(26,89).
edge(26,90).
edge(26,91).
edge(26,93).
edge(26,95).
edge(26,96).
edge(26,97).
edge(26,98).
edge(26,99).
edge(26,100).
edge(26,102).
edge(26,104).
edge(26,105).
edge(26,107).
edge(26,108).
edge(26,110).
edge(26,111).
edge(26,112).
edge(26,113).
edge(26,114).
edge(26,115).
edge(26,116).
edge(26,117).
edge(26,119).
edge(26,120).
edge(26,122).
edge(26,123).
edge(26,124).
edge(26,126).
edge(26,130).
edge(26,132).
edge(26,133).
edge(26,137).
edge(26,138).
edge(26,139).
edge(26,140).
edge(26,141).
edge(26,142).
edge(26,143).
edge(26,147).
edge(26,149).
edge(26,151).
edge(26,152).
edge(26,155).
edge(26,156).
edge(26,157).
edge(26,158).
edge(26,161).
edge(26,162).
edge(26,163).
edge(26,165).
edge(26,166).
edge(26,169).
edge(26,170).
edge(26,172).
edge(26,173).
edge(26,174).
edge(26,175).
edge(26,177).
edge(26,179).
edge(26,181).
edge(26,182).
edge(26,185).
edge(26,186).
edge(26,188).
edge(26,189).
edge(26,194).
edge(26,195).
edge(26,196).
edge(26,198).
edge(26,199).
edge(26,202).
edge(26,204).
edge(26,209).
edge(26,212).
edge(26,214).
edge(26,217).
edge(26,219).
edge(26,220).
edge(26,222).
edge(26,223).
edge(26,225).
edge(26,227).
edge(26,230).
edge(26,231).
edge(26,232).
edge(26,235).
edge(26,236).
edge(26,239).
edge(26,240).
edge(26,242).
edge(26,243).
edge(26,245).
edge(26,246).
edge(26,247).
edge(26,248).
edge(26,249).
edge(26,250).
edge(27,30).
edge(27,31).
edge(27,32).
edge(27,33).
edge(27,36).
edge(27,37).
edge(27,38).
edge(27,39).
edge(27,40).
edge(27,41).
edge(27,43).
edge(27,44).
edge(27,46).
edge(27,47).
edge(27,48).
edge(27,50).
edge(27,51).
edge(27,53).
edge(27,54).
edge(27,56).
edge(27,57).
edge(27,58).
edge(27,60).
edge(27,62).
edge(27,64).
edge(27,66).
edge(27,68).
edge(27,69).
edge(27,71).
edge(27,74).
edge(27,75).
edge(27,77).
edge(27,78).
edge(27,80).
edge(27,82).
edge(27,84).
edge(27,87).
edge(27,88).
edge(27,89).
edge(27,91).
edge(27,92).
edge(27,93).
edge(27,94).
edge(27,95).
edge(27,96).
edge(27,97).
edge(27,98).
edge(27,99).
edge(27,100).
edge(27,101).
edge(27,102).
edge(27,103).
edge(27,104).
edge(27,105).
edge(27,106).
edge(27,107).
edge(27,109).
edge(27,110).
edge(27,112).
edge(27,113).
edge(27,116).
edge(27,118).
edge(27,119).
edge(27,121).
edge(27,122).
edge(27,123).
edge(27,124).
edge(27,125).
edge(27,126).
edge(27,128).
edge(27,130).
edge(27,132).
edge(27,133).
edge(27,134).
edge(27,135).
edge(27,137).
edge(27,138).
edge(27,139).
edge(27,140).
edge(27,141).
edge(27,142).
edge(27,143).
edge(27,145).
edge(27,146).
edge(27,149).
edge(27,150).
edge(27,151).
edge(27,154).
edge(27,156).
edge(27,157).
edge(27,160).
edge(27,162).
edge(27,165).
edge(27,166).
edge(27,168).
edge(27,169).
edge(27,170).
edge(27,174).
edge(27,175).
edge(27,176).
edge(27,177).
edge(27,180).
edge(27,181).
edge(27,182).
edge(27,184).
edge(27,185).
edge(27,186).
edge(27,187).
edge(27,188).
edge(27,189).
edge(27,190).
edge(27,191).
edge(27,194).
edge(27,195).
edge(27,196).
edge(27,197).
edge(27,198).
edge(27,199).
edge(27,200).
edge(27,201).
edge(27,203).
edge(27,204).
edge(27,205).
edge(27,207).
edge(27,208).
edge(27,209).
edge(27,210).
edge(27,211).
edge(27,213).
edge(27,214).
edge(27,215).
edge(27,216).
edge(27,217).
edge(27,218).
edge(27,221).
edge(27,223).
edge(27,225).
edge(27,227).
edge(27,228).
edge(27,230).
edge(27,231).
edge(27,232).
edge(27,233).
edge(27,237).
edge(27,238).
edge(27,241).
edge(27,242).
edge(27,245).
edge(27,246).
edge(27,247).
edge(27,248).
edge(27,249).
edge(27,250).
edge(28,29).
edge(28,30).
edge(28,31).
edge(28,35).
edge(28,36).
edge(28,37).
edge(28,39).
edge(28,41).
edge(28,42).
edge(28,43).
edge(28,44).
edge(28,47).
edge(28,48).
edge(28,49).
edge(28,50).
edge(28,51).
edge(28,52).
edge(28,54).
edge(28,56).
edge(28,58).
edge(28,61).
edge(28,62).
edge(28,63).
edge(28,64).
edge(28,65).
edge(28,66).
edge(28,67).
edge(28,69).
edge(28,71).
edge(28,74).
edge(28,75).
edge(28,76).
edge(28,78).
edge(28,80).
edge(28,83).
edge(28,84).
edge(28,85).
edge(28,87).
edge(28,88).
edge(28,90).
edge(28,93).
edge(28,94).
edge(28,95).
edge(28,96).
edge(28,97).
edge(28,101).
edge(28,104).
edge(28,105).
edge(28,108).
edge(28,109).
edge(28,111).
edge(28,113).
edge(28,114).
edge(28,115).
edge(28,116).
edge(28,117).
edge(28,118).
edge(28,119).
edge(28,120).
edge(28,122).
edge(28,124).
edge(28,125).
edge(28,126).
edge(28,127).
edge(28,129).
edge(28,130).
edge(28,131).
edge(28,132).
edge(28,133).
edge(28,134).
edge(28,135).
edge(28,136).
edge(28,138).
edge(28,142).
edge(28,145).
edge(28,146).
edge(28,147).
edge(28,150).
edge(28,152).
edge(28,153).
edge(28,154).
edge(28,155).
edge(28,156).
edge(28,157).
edge(28,158).
edge(28,159).
edge(28,160).
edge(28,161).
edge(28,163).
edge(28,164).
edge(28,165).
edge(28,166).
edge(28,167).
edge(28,169).
edge(28,171).
edge(28,173).
edge(28,174).
edge(28,175).
edge(28,176).
edge(28,178).
edge(28,179).
edge(28,180).
edge(28,181).
edge(28,182).
edge(28,185).
edge(28,186).
edge(28,187).
edge(28,188).
edge(28,190).
edge(28,191).
edge(28,195).
edge(28,196).
edge(28,198).
edge(28,199).
edge(28,200).
edge(28,201).
edge(28,202).
edge(28,204).
edge(28,206).
edge(28,207).
edge(28,208).
edge(28,209).
edge(28,210).
edge(28,211).
edge(28,213).
edge(28,216).
edge(28,219).
edge(28,221).
edge(28,222).
edge(28,225).
edge(28,229).
edge(28,231).
edge(28,232).
edge(28,233).
edge(28,234).
edge(28,235).
edge(28,238).
edge(28,241).
edge(28,242).
edge(28,243).
edge(28,244).
edge(28,245).
edge(28,246).
edge(28,247).
edge(28,248).
edge(28,250).
edge(29,30).
edge(29,31).
edge(29,32).
edge(29,34).
edge(29,35).
edge(29,36).
edge(29,37).
edge(29,39).
edge(29,40).
edge(29,41).
edge(29,42).
edge(29,43).
edge(29,45).
edge(29,46).
edge(29,47).
edge(29,49).
edge(29,51).
edge(29,52).
edge(29,53).
edge(29,54).
edge(29,55).
edge(29,56).
edge(29,59).
edge(29,60).
edge(29,63).
edge(29,65).
edge(29,66).
edge(29,69).
edge(29,70).
edge(29,72).
edge(29,74).
edge(29,76).
edge(29,77).
edge(29,78).
edge(29,79).
edge(29,80).
edge(29,83).
edge(29,84).
edge(29,85).
edge(29,86).
edge(29,88).
edge(29,89).
edge(29,90).
edge(29,91).
edge(29,93).
edge(29,94).
edge(29,95).
edge(29,96).
edge(29,97).
edge(29,99).
edge(29,101).
edge(29,104).
edge(29,106).
edge(29,107).
edge(29,108).
edge(29,109).
edge(29,110).
edge(29,111).
edge(29,112).
edge(29,113).
edge(29,114).
edge(29,115).
edge(29,117).
edge(29,119).
edge(29,123).
edge(29,124).
edge(29,125).
edge(29,126).
edge(29,127).
edge(29,129).
edge(29,130).
edge(29,131).
edge(29,133).
edge(29,135).
edge(29,137).
edge(29,138).
edge(29,139).
edge(29,140).
edge(29,141).
edge(29,143).
edge(29,144).
edge(29,145).
edge(29,146).
edge(29,147).
edge(29,148).
edge(29,149).
edge(29,150).
edge(29,151).
edge(29,153).
edge(29,154).
edge(29,156).
edge(29,157).
edge(29,159).
edge(29,160).
edge(29,161).
edge(29,162).
edge(29,163).
edge(29,165).
edge(29,167).
edge(29,168).
edge(29,169).
edge(29,170).
edge(29,172).
edge(29,173).
edge(29,175).
edge(29,178).
edge(29,179).
edge(29,181).
edge(29,182).
edge(29,184).
edge(29,185).
edge(29,187).
edge(29,189).
edge(29,190).
edge(29,191).
edge(29,192).
edge(29,193).
edge(29,194).
edge(29,195).
edge(29,196).
edge(29,198).
edge(29,199).
edge(29,200).
edge(29,201).
edge(29,202).
edge(29,204).
edge(29,205).
edge(29,206).
edge(29,207).
edge(29,209).
edge(29,211).
edge(29,212).
edge(29,213).
edge(29,214).
edge(29,215).
edge(29,216).
edge(29,217).
edge(29,219).
edge(29,221).
edge(29,222).
edge(29,223).
edge(29,224).
edge(29,225).
edge(29,226).
edge(29,227).
edge(29,229).
edge(29,230).
edge(29,231).
edge(29,232).
edge(29,233).
edge(29,234).
edge(29,235).
edge(29,236).
edge(29,237).
edge(29,239).
edge(29,240).
edge(29,241).
edge(29,242).
edge(29,243).
edge(29,244).
edge(29,245).
edge(29,246).
edge(29,247).
edge(29,248).
edge(30,31).
edge(30,33).
edge(30,34).
edge(30,36).
edge(30,37).
edge(30,39).
edge(30,40).
edge(30,41).
edge(30,43).
edge(30,44).
edge(30,45).
edge(30,46).
edge(30,50).
edge(30,51).
edge(30,52).
edge(30,55).
edge(30,56).
edge(30,57).
edge(30,58).
edge(30,59).
edge(30,60).
edge(30,61).
edge(30,63).
edge(30,66).
edge(30,67).
edge(30,69).
edge(30,71).
edge(30,73).
edge(30,74).
edge(30,77).
edge(30,78).
edge(30,79).
edge(30,80).
edge(30,82).
edge(30,83).
edge(30,84).
edge(30,86).
edge(30,87).
edge(30,88).
edge(30,90).
edge(30,91).
edge(30,92).
edge(30,94).
edge(30,95).
edge(30,96).
edge(30,97).
edge(30,98).
edge(30,99).
edge(30,100).
edge(30,101).
edge(30,103).
edge(30,106).
edge(30,107).
edge(30,108).
edge(30,109).
edge(30,110).
edge(30,111).
edge(30,113).
edge(30,115).
edge(30,116).
edge(30,117).
edge(30,118).
edge(30,120).
edge(30,121).
edge(30,122).
edge(30,123).
edge(30,124).
edge(30,125).
edge(30,126).
edge(30,127).
edge(30,128).
edge(30,129).
edge(30,130).
edge(30,131).
edge(30,132).
edge(30,133).
edge(30,134).
edge(30,135).
edge(30,138).
edge(30,139).
edge(30,140).
edge(30,141).
edge(30,142).
edge(30,144).
edge(30,147).
edge(30,148).
edge(30,149).
edge(30,150).
edge(30,153).
edge(30,154).
edge(30,155).
edge(30,156).
edge(30,157).
edge(30,159).
edge(30,162).
edge(30,163).
edge(30,164).
edge(30,165).
edge(30,166).
edge(30,167).
edge(30,168).
edge(30,169).
edge(30,171).
edge(30,173).
edge(30,174).
edge(30,175).
edge(30,176).
edge(30,177).
edge(30,178).
edge(30,179).
edge(30,180).
edge(30,181).
edge(30,182).
edge(30,183).
edge(30,186).
edge(30,187).
edge(30,188).
edge(30,189).
edge(30,190).
edge(30,193).
edge(30,194).
edge(30,195).
edge(30,196).
edge(30,198).
edge(30,199).
edge(30,201).
edge(30,202).
edge(30,205).
edge(30,206).
edge(30,208).
edge(30,209).
edge(30,211).
edge(30,212).
edge(30,213).
edge(30,215).
edge(30,219).
edge(30,221).
edge(30,222).
edge(30,223).
edge(30,224).
edge(30,226).
edge(30,228).
edge(30,229).
edge(30,230).
edge(30,231).
edge(30,234).
edge(30,235).
edge(30,236).
edge(30,237).
edge(30,238).
edge(30,239).
edge(30,241).
edge(30,243).
edge(30,244).
edge(30,245).
edge(30,246).
edge(30,248).
edge(30,249).
edge(31,34).
edge(31,35).
edge(31,36).
edge(31,37).
edge(31,39).
edge(31,41).
edge(31,42).
edge(31,43).
edge(31,44).
edge(31,45).
edge(31,46).
edge(31,48).
edge(31,50).
edge(31,51).
edge(31,52).
edge(31,53).
edge(31,54).
edge(31,56).
edge(31,58).
edge(31,60).
edge(31,62).
edge(31,63).
edge(31,64).
edge(31,66).
edge(31,68).
edge(31,69).
edge(31,70).
edge(31,74).
edge(31,75).
edge(31,77).
edge(31,78).
edge(31,79).
edge(31,80).
edge(31,82).
edge(31,84).
edge(31,88).
edge(31,89).
edge(31,90).
edge(31,95).
edge(31,96).
edge(31,97).
edge(31,99).
edge(31,101).
edge(31,103).
edge(31,104).
edge(31,107).
edge(31,109).
edge(31,112).
edge(31,113).
edge(31,115).
edge(31,117).
edge(31,118).
edge(31,119).
edge(31,120).
edge(31,121).
edge(31,122).
edge(31,125).
edge(31,126).
edge(31,127).
edge(31,128).
edge(31,130).
edge(31,131).
edge(31,132).
edge(31,133).
edge(31,134).
edge(31,135).
edge(31,136).
edge(31,137).
edge(31,138).
edge(31,140).
edge(31,142).
edge(31,143).
edge(31,145).
edge(31,147).
edge(31,148).
edge(31,149).
edge(31,150).
edge(31,151).
edge(31,152).
edge(31,153).
edge(31,157).
edge(31,158).
edge(31,159).
edge(31,160).
edge(31,161).
edge(31,162).
edge(31,163).
edge(31,166).
edge(31,168).
edge(31,170).
edge(31,171).
edge(31,172).
edge(31,176).
edge(31,180).
edge(31,186).
edge(31,187).
edge(31,188).
edge(31,190).
edge(31,191).
edge(31,192).
edge(31,193).
edge(31,194).
edge(31,196).
edge(31,197).
edge(31,199).
edge(31,200).
edge(31,203).
edge(31,204).
edge(31,205).
edge(31,206).
edge(31,209).
edge(31,212).
edge(31,213).
edge(31,214).
edge(31,215).
edge(31,216).
edge(31,217).
edge(31,219).
edge(31,220).
edge(31,221).
edge(31,223).
edge(31,225).
edge(31,226).
edge(31,227).
edge(31,229).
edge(31,231).
edge(31,232).
edge(31,233).
edge(31,234).
edge(31,235).
edge(31,237).
edge(31,238).
edge(31,240).
edge(31,241).
edge(31,242).
edge(31,244).
edge(31,245).
edge(31,246).
edge(31,247).
edge(31,248).
edge(31,250).
edge(32,34).
edge(32,36).
edge(32,37).
edge(32,38).
edge(32,39).
edge(32,40).
edge(32,46).
edge(32,47).
edge(32,48).
edge(32,49).
edge(32,50).
edge(32,52).
edge(32,55).
edge(32,56).
edge(32,57).
edge(32,59).
edge(32,61).
edge(32,62).
edge(32,65).
edge(32,67).
edge(32,68).
edge(32,70).
edge(32,72).
edge(32,74).
edge(32,76).
edge(32,78).
edge(32,79).
edge(32,81).
edge(32,82).
edge(32,83).
edge(32,85).
edge(32,86).
edge(32,88).
edge(32,90).
edge(32,91).
edge(32,92).
edge(32,93).
edge(32,94).
edge(32,96).
edge(32,97).
edge(32,98).
edge(32,101).
edge(32,102).
edge(32,104).
edge(32,105).
edge(32,106).
edge(32,107).
edge(32,108).
edge(32,109).
edge(32,110).
edge(32,111).
edge(32,112).
edge(32,114).
edge(32,115).
edge(32,119).
edge(32,120).
edge(32,125).
edge(32,127).
edge(32,129).
edge(32,130).
edge(32,131).
edge(32,132).
edge(32,133).
edge(32,135).
edge(32,136).
edge(32,138).
edge(32,139).
edge(32,140).
edge(32,141).
edge(32,142).
edge(32,145).
edge(32,147).
edge(32,148).
edge(32,149).
edge(32,150).
edge(32,151).
edge(32,152).
edge(32,153).
edge(32,154).
edge(32,155).
edge(32,156).
edge(32,157).
edge(32,159).
edge(32,160).
edge(32,162).
edge(32,165).
edge(32,167).
edge(32,169).
edge(32,170).
edge(32,171).
edge(32,172).
edge(32,173).
edge(32,174).
edge(32,178).
edge(32,179).
edge(32,180).
edge(32,182).
edge(32,183).
edge(32,187).
edge(32,188).
edge(32,189).
edge(32,190).
edge(32,191).
edge(32,192).
edge(32,194).
edge(32,195).
edge(32,196).
edge(32,197).
edge(32,198).
edge(32,199).
edge(32,200).
edge(32,201).
edge(32,202).
edge(32,204).
edge(32,205).
edge(32,207).
edge(32,209).
edge(32,210).
edge(32,211).
edge(32,212).
edge(32,213).
edge(32,214).
edge(32,215).
edge(32,216).
edge(32,218).
edge(32,221).
edge(32,222).
edge(32,225).
edge(32,226).
edge(32,227).
edge(32,228).
edge(32,229).
edge(32,230).
edge(32,231).
edge(32,232).
edge(32,234).
edge(32,236).
edge(32,238).
edge(32,239).
edge(32,240).
edge(32,241).
edge(32,243).
edge(32,245).
edge(32,246).
edge(32,247).
edge(32,248).
edge(32,249).
edge(33,34).
edge(33,36).
edge(33,38).
edge(33,39).
edge(33,40).
edge(33,41).
edge(33,43).
edge(33,44).
edge(33,48).
edge(33,49).
edge(33,50).
edge(33,51).
edge(33,55).
edge(33,56).
edge(33,57).
edge(33,58).
edge(33,61).
edge(33,62).
edge(33,63).
edge(33,64).
edge(33,65).
edge(33,66).
edge(33,67).
edge(33,68).
edge(33,71).
edge(33,72).
edge(33,73).
edge(33,74).
edge(33,76).
edge(33,77).
edge(33,78).
edge(33,79).
edge(33,80).
edge(33,82).
edge(33,83).
edge(33,84).
edge(33,85).
edge(33,86).
edge(33,87).
edge(33,90).
edge(33,91).
edge(33,93).
edge(33,94).
edge(33,95).
edge(33,96).
edge(33,99).
edge(33,100).
edge(33,102).
edge(33,103).
edge(33,104).
edge(33,105).
edge(33,107).
edge(33,108).
edge(33,109).
edge(33,110).
edge(33,112).
edge(33,116).
edge(33,117).
edge(33,118).
edge(33,119).
edge(33,122).
edge(33,123).
edge(33,126).
edge(33,128).
edge(33,131).
edge(33,133).
edge(33,134).
edge(33,137).
edge(33,138).
edge(33,139).
edge(33,140).
edge(33,141).
edge(33,144).
edge(33,145).
edge(33,146).
edge(33,148).
edge(33,149).
edge(33,150).
edge(33,151).
edge(33,152).
edge(33,153).
edge(33,154).
edge(33,155).
edge(33,157).
edge(33,158).
edge(33,159).
edge(33,163).
edge(33,164).
edge(33,167).
edge(33,168).
edge(33,169).
edge(33,171).
edge(33,173).
edge(33,176).
edge(33,178).
edge(33,179).
edge(33,180).
edge(33,182).
edge(33,183).
edge(33,185).
edge(33,187).
edge(33,188).
edge(33,189).
edge(33,191).
edge(33,192).
edge(33,196).
edge(33,197).
edge(33,199).
edge(33,200).
edge(33,201).
edge(33,202).
edge(33,203).
edge(33,204).
edge(33,206).
edge(33,207).
edge(33,208).
edge(33,211).
edge(33,212).
edge(33,213).
edge(33,214).
edge(33,216).
edge(33,220).
edge(33,221).
edge(33,222).
edge(33,223).
edge(33,224).
edge(33,229).
edge(33,231).
edge(33,233).
edge(33,234).
edge(33,235).
edge(33,239).
edge(33,240).
edge(33,241).
edge(33,242).
edge(33,243).
edge(33,244).
edge(33,245).
edge(33,246).
edge(33,247).
edge(34,35).
edge(34,36).
edge(34,37).
edge(34,39).
edge(34,41).
edge(34,44).
edge(34,48).
edge(34,51).
edge(34,54).
edge(34,55).
edge(34,56).
edge(34,58).
edge(34,59).
edge(34,61).
edge(34,63).
edge(34,65).
edge(34,66).
edge(34,67).
edge(34,69).
edge(34,70).
edge(34,71).
edge(34,75).
edge(34,76).
edge(34,77).
edge(34,78).
edge(34,79).
edge(34,80).
edge(34,81).
edge(34,82).
edge(34,84).
edge(34,85).
edge(34,86).
edge(34,87).
edge(34,88).
edge(34,89).
edge(34,91).
edge(34,92).
edge(34,95).
edge(34,96).
edge(34,99).
edge(34,100).
edge(34,101).
edge(34,102).
edge(34,104).
edge(34,105).
edge(34,107).
edge(34,108).
edge(34,109).
edge(34,111).
edge(34,114).
edge(34,115).
edge(34,117).
edge(34,118).
edge(34,120).
edge(34,121).
edge(34,122).
edge(34,123).
edge(34,124).
edge(34,125).
edge(34,126).
edge(34,127).
edge(34,128).
edge(34,129).
edge(34,130).
edge(34,132).
edge(34,134).
edge(34,135).
edge(34,137).
edge(34,138).
edge(34,139).
edge(34,140).
edge(34,144).
edge(34,145).
edge(34,147).
edge(34,148).
edge(34,149).
edge(34,153).
edge(34,155).
edge(34,156).
edge(34,157).
edge(34,159).
edge(34,160).
edge(34,161).
edge(34,162).
edge(34,163).
edge(34,164).
edge(34,165).
edge(34,167).
edge(34,168).
edge(34,169).
edge(34,170).
edge(34,171).
edge(34,175).
edge(34,176).
edge(34,177).
edge(34,178).
edge(34,179).
edge(34,180).
edge(34,181).
edge(34,182).
edge(34,183).
edge(34,185).
edge(34,186).
edge(34,188).
edge(34,191).
edge(34,192).
edge(34,196).
edge(34,197).
edge(34,199).
edge(34,200).
edge(34,201).
edge(34,202).
edge(34,203).
edge(34,204).
edge(34,206).
edge(34,207).
edge(34,208).
edge(34,209).
edge(34,210).
edge(34,211).
edge(34,212).
edge(34,216).
edge(34,217).
edge(34,218).
edge(34,219).
edge(34,220).
edge(34,221).
edge(34,222).
edge(34,223).
edge(34,224).
edge(34,225).
edge(34,226).
edge(34,229).
edge(34,231).
edge(34,232).
edge(34,234).
edge(34,235).
edge(34,237).
edge(34,240).
edge(34,242).
edge(34,244).
edge(34,245).
edge(34,246).
edge(34,247).
edge(34,249).
edge(34,250).
edge(35,36).
edge(35,39).
edge(35,41).
edge(35,42).
edge(35,43).
edge(35,44).
edge(35,45).
edge(35,47).
edge(35,48).
edge(35,49).
edge(35,50).
edge(35,53).
edge(35,54).
edge(35,56).
edge(35,57).
edge(35,59).
edge(35,61).
edge(35,64).
edge(35,66).
edge(35,67).
edge(35,68).
edge(35,71).
edge(35,72).
edge(35,73).
edge(35,74).
edge(35,75).
edge(35,77).
edge(35,78).
edge(35,79).
edge(35,82).
edge(35,83).
edge(35,84).
edge(35,85).
edge(35,88).
edge(35,89).
edge(35,90).
edge(35,91).
edge(35,92).
edge(35,93).
edge(35,95).
edge(35,97).
edge(35,98).
edge(35,103).
edge(35,104).
edge(35,105).
edge(35,110).
edge(35,111).
edge(35,115).
edge(35,117).
edge(35,119).
edge(35,120).
edge(35,123).
edge(35,124).
edge(35,126).
edge(35,129).
edge(35,130).
edge(35,131).
edge(35,133).
edge(35,135).
edge(35,136).
edge(35,137).
edge(35,138).
edge(35,140).
edge(35,141).
edge(35,142).
edge(35,146).
edge(35,148).
edge(35,150).
edge(35,152).
edge(35,153).
edge(35,154).
edge(35,155).
edge(35,157).
edge(35,158).
edge(35,159).
edge(35,160).
edge(35,161).
edge(35,163).
edge(35,164).
edge(35,166).
edge(35,167).
edge(35,168).
edge(35,172).
edge(35,173).
edge(35,174).
edge(35,176).
edge(35,178).
edge(35,180).
edge(35,182).
edge(35,185).
edge(35,186).
edge(35,187).
edge(35,188).
edge(35,189).
edge(35,190).
edge(35,191).
edge(35,193).
edge(35,195).
edge(35,196).
edge(35,197).
edge(35,199).
edge(35,200).
edge(35,202).
edge(35,204).
edge(35,205).
edge(35,206).
edge(35,207).
edge(35,209).
edge(35,212).
edge(35,213).
edge(35,215).
edge(35,217).
edge(35,219).
edge(35,220).
edge(35,221).
edge(35,223).
edge(35,224).
edge(35,227).
edge(35,229).
edge(35,230).
edge(35,231).
edge(35,232).
edge(35,233).
edge(35,235).
edge(35,238).
edge(35,239).
edge(35,240).
edge(35,241).
edge(35,242).
edge(35,243).
edge(35,244).
edge(35,245).
edge(35,248).
edge(35,249).
edge(36,37).
edge(36,38).
edge(36,39).
edge(36,41).
edge(36,42).
edge(36,44).
edge(36,46).
edge(36,47).
edge(36,48).
edge(36,49).
edge(36,50).
edge(36,51).
edge(36,52).
edge(36,53).
edge(36,55).
edge(36,56).
edge(36,57).
edge(36,60).
edge(36,61).
edge(36,62).
edge(36,63).
edge(36,64).
edge(36,65).
edge(36,66).
edge(36,67).
edge(36,68).
edge(36,69).
edge(36,74).
edge(36,75).
edge(36,76).
edge(36,77).
edge(36,78).
edge(36,79).
edge(36,80).
edge(36,81).
edge(36,83).
edge(36,84).
edge(36,85).
edge(36,86).
edge(36,89).
edge(36,91).
edge(36,92).
edge(36,93).
edge(36,94).
edge(36,95).
edge(36,96).
edge(36,97).
edge(36,99).
edge(36,100).
edge(36,102).
edge(36,104).
edge(36,105).
edge(36,106).
edge(36,107).
edge(36,109).
edge(36,114).
edge(36,116).
edge(36,117).
edge(36,118).
edge(36,119).
edge(36,120).
edge(36,121).
edge(36,123).
edge(36,124).
edge(36,127).
edge(36,128).
edge(36,129).
edge(36,131).
edge(36,132).
edge(36,133).
edge(36,134).
edge(36,135).
edge(36,136).
edge(36,138).
edge(36,139).
edge(36,142).
edge(36,144).
edge(36,146).
edge(36,147).
edge(36,148).
edge(36,149).
edge(36,150).
edge(36,151).
edge(36,156).
edge(36,157).
edge(36,158).
edge(36,159).
edge(36,160).
edge(36,162).
edge(36,163).
edge(36,164).
edge(36,165).
edge(36,167).
edge(36,168).
edge(36,169).
edge(36,170).
edge(36,171).
edge(36,174).
edge(36,176).
edge(36,177).
edge(36,178).
edge(36,179).
edge(36,181).
edge(36,182).
edge(36,183).
edge(36,184).
edge(36,185).
edge(36,186).
edge(36,188).
edge(36,189).
edge(36,190).
edge(36,191).
edge(36,192).
edge(36,193).
edge(36,194).
edge(36,195).
edge(36,196).
edge(36,198).
edge(36,199).
edge(36,200).
edge(36,201).
edge(36,202).
edge(36,203).
edge(36,204).
edge(36,205).
edge(36,206).
edge(36,210).
edge(36,211).
edge(36,214).
edge(36,215).
edge(36,219).
edge(36,220).
edge(36,221).
edge(36,222).
edge(36,224).
edge(36,225).
edge(36,226).
edge(36,227).
edge(36,228).
edge(36,229).
edge(36,230).
edge(36,231).
edge(36,232).
edge(36,233).
edge(36,234).
edge(36,235).
edge(36,240).
edge(36,241).
edge(36,242).
edge(36,243).
edge(36,244).
edge(36,245).
edge(36,246).
edge(36,247).
edge(36,249).
edge(36,250).
edge(37,38).
edge(37,39).
edge(37,40).
edge(37,42).
edge(37,43).
edge(37,46).
edge(37,47).
edge(37,49).
edge(37,50).
edge(37,51).
edge(37,52).
edge(37,53).
edge(37,54).
edge(37,55).
edge(37,56).
edge(37,58).
edge(37,60).
edge(37,62).
edge(37,65).
edge(37,66).
edge(37,68).
edge(37,70).
edge(37,71).
edge(37,72).
edge(37,74).
edge(37,75).
edge(37,76).
edge(37,77).
edge(37,78).
edge(37,79).
edge(37,80).
edge(37,81).
edge(37,82).
edge(37,84).
edge(37,85).
edge(37,86).
edge(37,87).
edge(37,88).
edge(37,89).
edge(37,91).
edge(37,92).
edge(37,93).
edge(37,94).
edge(37,97).
edge(37,102).
edge(37,104).
edge(37,105).
edge(37,106).
edge(37,107).
edge(37,108).
edge(37,109).
edge(37,110).
edge(37,113).
edge(37,114).
edge(37,115).
edge(37,116).
edge(37,117).
edge(37,118).
edge(37,119).
edge(37,120).
edge(37,124).
edge(37,125).
edge(37,126).
edge(37,127).
edge(37,128).
edge(37,129).
edge(37,130).
edge(37,131).
edge(37,132).
edge(37,134).
edge(37,135).
edge(37,136).
edge(37,138).
edge(37,139).
edge(37,141).
edge(37,142).
edge(37,143).
edge(37,146).
edge(37,147).
edge(37,148).
edge(37,149).
edge(37,150).
edge(37,151).
edge(37,154).
edge(37,156).
edge(37,157).
edge(37,158).
edge(37,160).
edge(37,162).
edge(37,163).
edge(37,164).
edge(37,166).
edge(37,167).
edge(37,168).
edge(37,169).
edge(37,171).
edge(37,172).
edge(37,173).
edge(37,174).
edge(37,176).
edge(37,178).
edge(37,179).
edge(37,180).
edge(37,181).
edge(37,182).
edge(37,183).
edge(37,184).
edge(37,185).
edge(37,186).
edge(37,188).
edge(37,190).
edge(37,191).
edge(37,193).
edge(37,194).
edge(37,195).
edge(37,196).
edge(37,197).
edge(37,198).
edge(37,199).
edge(37,201).
edge(37,202).
edge(37,204).
edge(37,205).
edge(37,206).
edge(37,207).
edge(37,209).
edge(37,210).
edge(37,211).
edge(37,214).
edge(37,215).
edge(37,217).
edge(37,218).
edge(37,219).
edge(37,221).
edge(37,222).
edge(37,223).
edge(37,224).
edge(37,225).
edge(37,229).
edge(37,230).
edge(37,231).
edge(37,232).
edge(37,233).
edge(37,234).
edge(37,235).
edge(37,237).
edge(37,238).
edge(37,240).
edge(37,241).
edge(37,242).
edge(37,243).
edge(37,244).
edge(37,245).
edge(37,246).
edge(37,247).
edge(37,248).
edge(37,249).
edge(37,250).
edge(38,40).
edge(38,43).
edge(38,44).
edge(38,48).
edge(38,50).
edge(38,51).
edge(38,52).
edge(38,55).
edge(38,56).
edge(38,58).
edge(38,59).
edge(38,60).
edge(38,61).
edge(38,62).
edge(38,63).
edge(38,64).
edge(38,65).
edge(38,66).
edge(38,67).
edge(38,68).
edge(38,70).
edge(38,73).
edge(38,74).
edge(38,75).
edge(38,76).
edge(38,77).
edge(38,78).
edge(38,81).
edge(38,85).
edge(38,86).
edge(38,88).
edge(38,89).
edge(38,92).
edge(38,94).
edge(38,96).
edge(38,98).
edge(38,99).
edge(38,100).
edge(38,102).
edge(38,103).
edge(38,104).
edge(38,105).
edge(38,106).
edge(38,107).
edge(38,108).
edge(38,110).
edge(38,111).
edge(38,112).
edge(38,114).
edge(38,115).
edge(38,116).
edge(38,117).
edge(38,118).
edge(38,119).
edge(38,120).
edge(38,121).
edge(38,124).
edge(38,125).
edge(38,126).
edge(38,127).
edge(38,128).
edge(38,129).
edge(38,130).
edge(38,131).
edge(38,132).
edge(38,136).
edge(38,138).
edge(38,139).
edge(38,140).
edge(38,141).
edge(38,142).
edge(38,145).
edge(38,148).
edge(38,151).
edge(38,152).
edge(38,154).
edge(38,155).
edge(38,156).
edge(38,157).
edge(38,159).
edge(38,160).
edge(38,161).
edge(38,164).
edge(38,165).
edge(38,169).
edge(38,170).
edge(38,173).
edge(38,175).
edge(38,177).
edge(38,178).
edge(38,179).
edge(38,180).
edge(38,182).
edge(38,183).
edge(38,185).
edge(38,186).
edge(38,187).
edge(38,188).
edge(38,190).
edge(38,191).
edge(38,193).
edge(38,194).
edge(38,195).
edge(38,196).
edge(38,197).
edge(38,198).
edge(38,199).
edge(38,200).
edge(38,201).
edge(38,202).
edge(38,204).
edge(38,205).
edge(38,208).
edge(38,209).
edge(38,210).
edge(38,212).
edge(38,213).
edge(38,214).
edge(38,215).
edge(38,217).
edge(38,218).
edge(38,219).
edge(38,221).
edge(38,222).
edge(38,223).
edge(38,225).
edge(38,226).
edge(38,227).
edge(38,229).
edge(38,230).
edge(38,231).
edge(38,232).
edge(38,234).
edge(38,237).
edge(38,238).
edge(38,240).
edge(38,241).
edge(38,242).
edge(38,247).
edge(38,248).
edge(38,250).
edge(39,40).
edge(39,41).
edge(39,43).
edge(39,45).
edge(39,47).
edge(39,49).
edge(39,51).
edge(39,52).
edge(39,53).
edge(39,54).
edge(39,55).
edge(39,56).
edge(39,61).
edge(39,65).
edge(39,66).
edge(39,67).
edge(39,68).
edge(39,70).
edge(39,71).
edge(39,72).
edge(39,74).
edge(39,76).
edge(39,77).
edge(39,78).
edge(39,79).
edge(39,80).
edge(39,82).
edge(39,84).
edge(39,85).
edge(39,86).
edge(39,88).
edge(39,89).
edge(39,90).
edge(39,91).
edge(39,92).
edge(39,93).
edge(39,94).
edge(39,95).
edge(39,96).
edge(39,99).
edge(39,100).
edge(39,102).
edge(39,103).
edge(39,104).
edge(39,106).
edge(39,107).
edge(39,109).
edge(39,110).
edge(39,112).
edge(39,114).
edge(39,115).
edge(39,116).
edge(39,117).
edge(39,118).
edge(39,119).
edge(39,120).
edge(39,121).
edge(39,123).
edge(39,125).
edge(39,126).
edge(39,127).
edge(39,128).
edge(39,131).
edge(39,132).
edge(39,134).
edge(39,135).
edge(39,138).
edge(39,139).
edge(39,140).
edge(39,141).
edge(39,142).
edge(39,143).
edge(39,145).
edge(39,146).
edge(39,148).
edge(39,149).
edge(39,151).
edge(39,153).
edge(39,155).
edge(39,156).
edge(39,157).
edge(39,159).
edge(39,160).
edge(39,161).
edge(39,162).
edge(39,163).
edge(39,164).
edge(39,167).
edge(39,168).
edge(39,172).
edge(39,174).
edge(39,175).
edge(39,176).
edge(39,177).
edge(39,179).
edge(39,180).
edge(39,182).
edge(39,183).
edge(39,184).
edge(39,187).
edge(39,188).
edge(39,189).
edge(39,191).
edge(39,192).
edge(39,193).
edge(39,195).
edge(39,196).
edge(39,200).
edge(39,202).
edge(39,204).
edge(39,205).
edge(39,206).
edge(39,207).
edge(39,209).
edge(39,210).
edge(39,211).
edge(39,213).
edge(39,214).
edge(39,216).
edge(39,217).
edge(39,218).
edge(39,220).
edge(39,221).
edge(39,223).
edge(39,226).
edge(39,228).
edge(39,229).
edge(39,230).
edge(39,231).
edge(39,232).
edge(39,233).
edge(39,234).
edge(39,235).
edge(39,236).
edge(39,238).
edge(39,239).
edge(39,240).
edge(39,241).
edge(39,244).
edge(39,245).
edge(39,247).
edge(39,249).
edge(39,250).
edge(40,41).
edge(40,42).
edge(40,44).
edge(40,45).
edge(40,47).
edge(40,48).
edge(40,50).
edge(40,51).
edge(40,52).
edge(40,53).
edge(40,54).
edge(40,55).
edge(40,56).
edge(40,62).
edge(40,64).
edge(40,65).
edge(40,66).
edge(40,68).
edge(40,70).
edge(40,73).
edge(40,74).
edge(40,75).
edge(40,76).
edge(40,77).
edge(40,79).
edge(40,80).
edge(40,81).
edge(40,83).
edge(40,85).
edge(40,89).
edge(40,90).
edge(40,91).
edge(40,93).
edge(40,94).
edge(40,95).
edge(40,97).
edge(40,98).
edge(40,99).
edge(40,101).
edge(40,102).
edge(40,103).
edge(40,104).
edge(40,105).
edge(40,107).
edge(40,108).
edge(40,110).
edge(40,111).
edge(40,112).
edge(40,115).
edge(40,117).
edge(40,119).
edge(40,120).
edge(40,121).
edge(40,124).
edge(40,125).
edge(40,126).
edge(40,127).
edge(40,130).
edge(40,132).
edge(40,135).
edge(40,136).
edge(40,137).
edge(40,139).
edge(40,140).
edge(40,141).
edge(40,142).
edge(40,143).
edge(40,145).
edge(40,147).
edge(40,149).
edge(40,151).
edge(40,153).
edge(40,154).
edge(40,156).
edge(40,158).
edge(40,160).
edge(40,162).
edge(40,165).
edge(40,169).
edge(40,173).
edge(40,174).
edge(40,175).
edge(40,178).
edge(40,179).
edge(40,183).
edge(40,186).
edge(40,188).
edge(40,189).
edge(40,190).
edge(40,191).
edge(40,194).
edge(40,197).
edge(40,198).
edge(40,199).
edge(40,201).
edge(40,202).
edge(40,203).
edge(40,205).
edge(40,206).
edge(40,208).
edge(40,212).
edge(40,213).
edge(40,214).
edge(40,215).
edge(40,216).
edge(40,217).
edge(40,218).
edge(40,222).
edge(40,223).
edge(40,224).
edge(40,226).
edge(40,227).
edge(40,228).
edge(40,229).
edge(40,230).
edge(40,231).
edge(40,232).
edge(40,234).
edge(40,237).
edge(40,238).
edge(40,240).
edge(40,243).
edge(40,244).
edge(40,246).
edge(40,247).
edge(41,42).
edge(41,44).
edge(41,45).
edge(41,48).
edge(41,49).
edge(41,50).
edge(41,51).
edge(41,52).
edge(41,53).
edge(41,55).
edge(41,56).
edge(41,57).
edge(41,58).
edge(41,59).
edge(41,60).
edge(41,61).
edge(41,62).
edge(41,63).
edge(41,66).
edge(41,68).
edge(41,73).
edge(41,74).
edge(41,75).
edge(41,76).
edge(41,77).
edge(41,78).
edge(41,79).
edge(41,80).
edge(41,81).
edge(41,85).
edge(41,86).
edge(41,87).
edge(41,88).
edge(41,89).
edge(41,90).
edge(41,91).
edge(41,93).
edge(41,94).
edge(41,95).
edge(41,96).
edge(41,97).
edge(41,99).
edge(41,100).
edge(41,101).
edge(41,102).
edge(41,103).
edge(41,104).
edge(41,105).
edge(41,106).
edge(41,108).
edge(41,109).
edge(41,110).
edge(41,111).
edge(41,113).
edge(41,114).
edge(41,116).
edge(41,117).
edge(41,118).
edge(41,120).
edge(41,121).
edge(41,123).
edge(41,124).
edge(41,125).
edge(41,130).
edge(41,131).
edge(41,134).
edge(41,135).
edge(41,136).
edge(41,138).
edge(41,139).
edge(41,141).
edge(41,144).
edge(41,147).
edge(41,148).
edge(41,149).
edge(41,150).
edge(41,152).
edge(41,153).
edge(41,159).
edge(41,160).
edge(41,162).
edge(41,164).
edge(41,165).
edge(41,166).
edge(41,167).
edge(41,168).
edge(41,169).
edge(41,170).
edge(41,171).
edge(41,173).
edge(41,175).
edge(41,176).
edge(41,177).
edge(41,178).
edge(41,179).
edge(41,181).
edge(41,182).
edge(41,183).
edge(41,186).
edge(41,187).
edge(41,188).
edge(41,189).
edge(41,191).
edge(41,193).
edge(41,194).
edge(41,195).
edge(41,196).
edge(41,198).
edge(41,199).
edge(41,202).
edge(41,203).
edge(41,204).
edge(41,206).
edge(41,207).
edge(41,208).
edge(41,209).
edge(41,212).
edge(41,213).
edge(41,214).
edge(41,215).
edge(41,217).
edge(41,218).
edge(41,219).
edge(41,220).
edge(41,221).
edge(41,224).
edge(41,227).
edge(41,228).
edge(41,229).
edge(41,230).
edge(41,231).
edge(41,232).
edge(41,233).
edge(41,234).
edge(41,235).
edge(41,236).
edge(41,237).
edge(41,238).
edge(41,239).
edge(41,241).
edge(41,242).
edge(41,244).
edge(41,245).
edge(41,246).
edge(41,247).
edge(41,248).
edge(41,250).
edge(42,43).
edge(42,47).
edge(42,49).
edge(42,50).
edge(42,51).
edge(42,53).
edge(42,56).
edge(42,60).
edge(42,61).
edge(42,65).
edge(42,66).
edge(42,67).
edge(42,69).
edge(42,70).
edge(42,72).
edge(42,73).
edge(42,74).
edge(42,75).
edge(42,76).
edge(42,77).
edge(42,78).
edge(42,79).
edge(42,80).
edge(42,81).
edge(42,82).
edge(42,83).
edge(42,84).
edge(42,86).
edge(42,87).
edge(42,88).
edge(42,89).
edge(42,90).
edge(42,91).
edge(42,92).
edge(42,93).
edge(42,94).
edge(42,95).
edge(42,96).
edge(42,100).
edge(42,101).
edge(42,102).
edge(42,104).
edge(42,105).
edge(42,109).
edge(42,110).
edge(42,111).
edge(42,112).
edge(42,114).
edge(42,116).
edge(42,117).
edge(42,118).
edge(42,119).
edge(42,123).
edge(42,124).
edge(42,125).
edge(42,126).
edge(42,127).
edge(42,128).
edge(42,129).
edge(42,130).
edge(42,131).
edge(42,132).
edge(42,135).
edge(42,136).
edge(42,140).
edge(42,141).
edge(42,143).
edge(42,144).
edge(42,145).
edge(42,147).
edge(42,149).
edge(42,150).
edge(42,151).
edge(42,152).
edge(42,153).
edge(42,154).
edge(42,155).
edge(42,157).
edge(42,159).
edge(42,160).
edge(42,161).
edge(42,162).
edge(42,163).
edge(42,165).
edge(42,166).
edge(42,167).
edge(42,168).
edge(42,169).
edge(42,171).
edge(42,172).
edge(42,175).
edge(42,176).
edge(42,178).
edge(42,179).
edge(42,181).
edge(42,182).
edge(42,183).
edge(42,184).
edge(42,185).
edge(42,190).
edge(42,191).
edge(42,192).
edge(42,194).
edge(42,195).
edge(42,198).
edge(42,199).
edge(42,201).
edge(42,202).
edge(42,203).
edge(42,204).
edge(42,205).
edge(42,206).
edge(42,207).
edge(42,208).
edge(42,209).
edge(42,211).
edge(42,212).
edge(42,213).
edge(42,215).
edge(42,216).
edge(42,217).
edge(42,219).
edge(42,221).
edge(42,222).
edge(42,223).
edge(42,225).
edge(42,226).
edge(42,227).
edge(42,229).
edge(42,230).
edge(42,231).
edge(42,233).
edge(42,235).
edge(42,237).
edge(42,238).
edge(42,239).
edge(42,240).
edge(42,241).
edge(42,242).
edge(42,243).
edge(42,245).
edge(42,246).
edge(42,247).
edge(42,249).
edge(42,250).
edge(43,45).
edge(43,46).
edge(43,47).
edge(43,48).
edge(43,49).
edge(43,50).
edge(43,51).
edge(43,52).
edge(43,53).
edge(43,55).
edge(43,57).
edge(43,58).
edge(43,59).
edge(43,60).
edge(43,61).
edge(43,62).
edge(43,63).
edge(43,64).
edge(43,65).
edge(43,67).
edge(43,69).
edge(43,70).
edge(43,72).
edge(43,73).
edge(43,74).
edge(43,76).
edge(43,77).
edge(43,78).
edge(43,79).
edge(43,80).
edge(43,81).
edge(43,83).
edge(43,84).
edge(43,86).
edge(43,88).
edge(43,89).
edge(43,90).
edge(43,91).
edge(43,94).
edge(43,95).
edge(43,97).
edge(43,98).
edge(43,99).
edge(43,101).
edge(43,102).
edge(43,103).
edge(43,105).
edge(43,107).
edge(43,108).
edge(43,109).
edge(43,110).
edge(43,112).
edge(43,113).
edge(43,114).
edge(43,115).
edge(43,116).
edge(43,117).
edge(43,118).
edge(43,119).
edge(43,120).
edge(43,121).
edge(43,123).
edge(43,124).
edge(43,126).
edge(43,127).
edge(43,128).
edge(43,129).
edge(43,130).
edge(43,131).
edge(43,132).
edge(43,133).
edge(43,134).
edge(43,136).
edge(43,138).
edge(43,139).
edge(43,140).
edge(43,141).
edge(43,142).
edge(43,143).
edge(43,144).
edge(43,145).
edge(43,146).
edge(43,147).
edge(43,148).
edge(43,149).
edge(43,150).
edge(43,151).
edge(43,152).
edge(43,154).
edge(43,157).
edge(43,158).
edge(43,159).
edge(43,162).
edge(43,163).
edge(43,164).
edge(43,165).
edge(43,166).
edge(43,167).
edge(43,168).
edge(43,169).
edge(43,172).
edge(43,175).
edge(43,176).
edge(43,177).
edge(43,178).
edge(43,180).
edge(43,181).
edge(43,183).
edge(43,184).
edge(43,186).
edge(43,188).
edge(43,192).
edge(43,194).
edge(43,197).
edge(43,198).
edge(43,199).
edge(43,200).
edge(43,202).
edge(43,203).
edge(43,204).
edge(43,205).
edge(43,206).
edge(43,207).
edge(43,208).
edge(43,209).
edge(43,210).
edge(43,211).
edge(43,212).
edge(43,213).
edge(43,215).
edge(43,216).
edge(43,217).
edge(43,218).
edge(43,219).
edge(43,221).
edge(43,222).
edge(43,223).
edge(43,224).
edge(43,225).
edge(43,226).
edge(43,227).
edge(43,228).
edge(43,229).
edge(43,230).
edge(43,231).
edge(43,232).
edge(43,233).
edge(43,234).
edge(43,235).
edge(43,236).
edge(43,237).
edge(43,238).
edge(43,239).
edge(43,240).
edge(43,241).
edge(43,242).
edge(43,244).
edge(43,245).
edge(43,246).
edge(43,247).
edge(43,248).
edge(44,46).
edge(44,47).
edge(44,48).
edge(44,49).
edge(44,51).
edge(44,52).
edge(44,54).
edge(44,57).
edge(44,59).
edge(44,60).
edge(44,61).
edge(44,62).
edge(44,63).
edge(44,64).
edge(44,66).
edge(44,67).
edge(44,69).
edge(44,71).
edge(44,74).
edge(44,75).
edge(44,76).
edge(44,77).
edge(44,78).
edge(44,79).
edge(44,80).
edge(44,81).
edge(44,83).
edge(44,84).
edge(44,85).
edge(44,89).
edge(44,90).
edge(44,92).
edge(44,93).
edge(44,94).
edge(44,95).
edge(44,96).
edge(44,98).
edge(44,99).
edge(44,100).
edge(44,102).
edge(44,103).
edge(44,104).
edge(44,106).
edge(44,110).
edge(44,111).
edge(44,112).
edge(44,113).
edge(44,114).
edge(44,116).
edge(44,118).
edge(44,119).
edge(44,122).
edge(44,123).
edge(44,124).
edge(44,128).
edge(44,129).
edge(44,131).
edge(44,133).
edge(44,134).
edge(44,136).
edge(44,137).
edge(44,138).
edge(44,140).
edge(44,141).
edge(44,142).
edge(44,145).
edge(44,146).
edge(44,147).
edge(44,149).
edge(44,151).
edge(44,152).
edge(44,154).
edge(44,156).
edge(44,157).
edge(44,158).
edge(44,161).
edge(44,162).
edge(44,166).
edge(44,167).
edge(44,168).
edge(44,170).
edge(44,173).
edge(44,174).
edge(44,177).
edge(44,178).
edge(44,179).
edge(44,180).
edge(44,184).
edge(44,185).
edge(44,187).
edge(44,189).
edge(44,191).
edge(44,193).
edge(44,195).
edge(44,196).
edge(44,199).
edge(44,201).
edge(44,203).
edge(44,204).
edge(44,206).
edge(44,209).
edge(44,210).
edge(44,211).
edge(44,212).
edge(44,213).
edge(44,216).
edge(44,218).
edge(44,219).
edge(44,220).
edge(44,222).
edge(44,223).
edge(44,225).
edge(44,226).
edge(44,230).
edge(44,231).
edge(44,232).
edge(44,234).
edge(44,236).
edge(44,240).
edge(44,241).
edge(44,242).
edge(44,245).
edge(44,246).
edge(44,247).
edge(44,249).
edge(45,46).
edge(45,48).
edge(45,49).
edge(45,50).
edge(45,51).
edge(45,53).
edge(45,55).
edge(45,57).
edge(45,58).
edge(45,59).
edge(45,60).
edge(45,66).
edge(45,68).
edge(45,71).
edge(45,72).
edge(45,73).
edge(45,74).
edge(45,75).
edge(45,77).
edge(45,78).
edge(45,79).
edge(45,80).
edge(45,81).
edge(45,83).
edge(45,84).
edge(45,85).
edge(45,86).
edge(45,88).
edge(45,89).
edge(45,90).
edge(45,91).
edge(45,92).
edge(45,93).
edge(45,94).
edge(45,95).
edge(45,96).
edge(45,97).
edge(45,98).
edge(45,99).
edge(45,102).
edge(45,103).
edge(45,104).
edge(45,106).
edge(45,107).
edge(45,108).
edge(45,109).
edge(45,110).
edge(45,111).
edge(45,112).
edge(45,113).
edge(45,114).
edge(45,115).
edge(45,116).
edge(45,117).
edge(45,118).
edge(45,119).
edge(45,121).
edge(45,123).
edge(45,124).
edge(45,125).
edge(45,126).
edge(45,127).
edge(45,128).
edge(45,130).
edge(45,131).
edge(45,133).
edge(45,134).
edge(45,135).
edge(45,136).
edge(45,138).
edge(45,141).
edge(45,142).
edge(45,143).
edge(45,144).
edge(45,146).
edge(45,148).
edge(45,149).
edge(45,150).
edge(45,151).
edge(45,153).
edge(45,154).
edge(45,155).
edge(45,156).
edge(45,157).
edge(45,158).
edge(45,160).
edge(45,161).
edge(45,162).
edge(45,163).
edge(45,164).
edge(45,165).
edge(45,167).
edge(45,168).
edge(45,169).
edge(45,170).
edge(45,172).
edge(45,173).
edge(45,174).
edge(45,177).
edge(45,178).
edge(45,179).
edge(45,180).
edge(45,181).
edge(45,182).
edge(45,184).
edge(45,186).
edge(45,188).
edge(45,189).
edge(45,190).
edge(45,191).
edge(45,192).
edge(45,194).
edge(45,195).
edge(45,197).
edge(45,198).
edge(45,199).
edge(45,201).
edge(45,202).
edge(45,204).
edge(45,205).
edge(45,206).
edge(45,207).
edge(45,208).
edge(45,209).
edge(45,211).
edge(45,212).
edge(45,213).
edge(45,218).
edge(45,219).
edge(45,220).
edge(45,222).
edge(45,223).
edge(45,224).
edge(45,225).
edge(45,226).
edge(45,228).
edge(45,231).
edge(45,233).
edge(45,234).
edge(45,235).
edge(45,236).
edge(45,237).
edge(45,238).
edge(45,239).
edge(45,240).
edge(45,244).
edge(45,245).
edge(45,246).
edge(45,247).
edge(45,248).
edge(45,249).
edge(46,51).
edge(46,52).
edge(46,53).
edge(46,54).
edge(46,56).
edge(46,57).
edge(46,58).
edge(46,60).
edge(46,61).
edge(46,62).
edge(46,65).
edge(46,66).
edge(46,68).
edge(46,70).
edge(46,71).
edge(46,73).
edge(46,75).
edge(46,76).
edge(46,78).
edge(46,79).
edge(46,80).
edge(46,81).
edge(46,82).
edge(46,85).
edge(46,86).
edge(46,88).
edge(46,89).
edge(46,91).
edge(46,93).
edge(46,94).
edge(46,95).
edge(46,96).
edge(46,97).
edge(46,98).
edge(46,99).
edge(46,100).
edge(46,101).
edge(46,102).
edge(46,103).
edge(46,104).
edge(46,105).
edge(46,106).
edge(46,107).
edge(46,109).
edge(46,111).
edge(46,113).
edge(46,114).
edge(46,116).
edge(46,117).
edge(46,120).
edge(46,121).
edge(46,122).
edge(46,123).
edge(46,124).
edge(46,125).
edge(46,126).
edge(46,128).
edge(46,129).
edge(46,130).
edge(46,131).
edge(46,132).
edge(46,133).
edge(46,138).
edge(46,139).
edge(46,140).
edge(46,144).
edge(46,145).
edge(46,146).
edge(46,147).
edge(46,149).
edge(46,150).
edge(46,153).
edge(46,154).
edge(46,156).
edge(46,158).
edge(46,160).
edge(46,162).
edge(46,163).
edge(46,164).
edge(46,165).
edge(46,166).
edge(46,167).
edge(46,168).
edge(46,169).
edge(46,170).
edge(46,171).
edge(46,174).
edge(46,175).
edge(46,176).
edge(46,177).
edge(46,179).
edge(46,180).
edge(46,182).
edge(46,183).
edge(46,184).
edge(46,188).
edge(46,189).
edge(46,190).
edge(46,192).
edge(46,193).
edge(46,194).
edge(46,195).
edge(46,196).
edge(46,197).
edge(46,199).
edge(46,200).
edge(46,201).
edge(46,203).
edge(46,204).
edge(46,206).
edge(46,207).
edge(46,210).
edge(46,211).
edge(46,212).
edge(46,214).
edge(46,216).
edge(46,218).
edge(46,219).
edge(46,221).
edge(46,222).
edge(46,224).
edge(46,225).
edge(46,226).
edge(46,227).
edge(46,228).
edge(46,230).
edge(46,232).
edge(46,234).
edge(46,236).
edge(46,238).
edge(46,240).
edge(46,242).
edge(46,245).
edge(46,246).
edge(46,247).
edge(46,248).
edge(46,249).
edge(46,250).
edge(47,48).
edge(47,51).
edge(47,52).
edge(47,61).
edge(47,64).
edge(47,65).
edge(47,66).
edge(47,71).
edge(47,74).
edge(47,75).
edge(47,76).
edge(47,77).
edge(47,78).
edge(47,79).
edge(47,80).
edge(47,81).
edge(47,83).
edge(47,85).
edge(47,86).
edge(47,87).
edge(47,89).
edge(47,91).
edge(47,92).
edge(47,93).
edge(47,94).
edge(47,95).
edge(47,96).
edge(47,97).
edge(47,99).
edge(47,102).
edge(47,103).
edge(47,104).
edge(47,109).
edge(47,110).
edge(47,111).
edge(47,112).
edge(47,113).
edge(47,114).
edge(47,115).
edge(47,116).
edge(47,120).
edge(47,122).
edge(47,125).
edge(47,126).
edge(47,128).
edge(47,129).
edge(47,131).
edge(47,132).
edge(47,133).
edge(47,134).
edge(47,135).
edge(47,136).
edge(47,139).
edge(47,140).
edge(47,142).
edge(47,143).
edge(47,145).
edge(47,147).
edge(47,150).
edge(47,151).
edge(47,152).
edge(47,153).
edge(47,156).
edge(47,158).
edge(47,159).
edge(47,160).
edge(47,163).
edge(47,164).
edge(47,165).
edge(47,167).
edge(47,169).
edge(47,171).
edge(47,172).
edge(47,176).
edge(47,177).
edge(47,180).
edge(47,181).
edge(47,182).
edge(47,183).
edge(47,185).
edge(47,188).
edge(47,190).
edge(47,192).
edge(47,193).
edge(47,194).
edge(47,195).
edge(47,197).
edge(47,198).
edge(47,199).
edge(47,200).
edge(47,202).
edge(47,203).
edge(47,204).
edge(47,205).
edge(47,206).
edge(47,207).
edge(47,209).
edge(47,210).
edge(47,212).
edge(47,217).
edge(47,218).
edge(47,219).
edge(47,224).
edge(47,225).
edge(47,226).
edge(47,227).
edge(47,229).
edge(47,230).
edge(47,234).
edge(47,237).
edge(47,238).
edge(47,239).
edge(47,240).
edge(47,241).
edge(47,243).
edge(47,246).
edge(47,247).
edge(47,248).
edge(47,250).
edge(48,49).
edge(48,50).
edge(48,51).
edge(48,52).
edge(48,53).
edge(48,55).
edge(48,57).
edge(48,59).
edge(48,60).
edge(48,61).
edge(48,64).
edge(48,66).
edge(48,67).
edge(48,68).
edge(48,69).
edge(48,72).
edge(48,74).
edge(48,76).
edge(48,78).
edge(48,79).
edge(48,80).
edge(48,82).
edge(48,83).
edge(48,84).
edge(48,86).
edge(48,88).
edge(48,89).
edge(48,90).
edge(48,91).
edge(48,94).
edge(48,95).
edge(48,97).
edge(48,100).
edge(48,101).
edge(48,102).
edge(48,105).
edge(48,107).
edge(48,108).
edge(48,112).
edge(48,113).
edge(48,114).
edge(48,115).
edge(48,116).
edge(48,120).
edge(48,121).
edge(48,122).
edge(48,123).
edge(48,124).
edge(48,127).
edge(48,128).
edge(48,129).
edge(48,131).
edge(48,132).
edge(48,136).
edge(48,137).
edge(48,138).
edge(48,142).
edge(48,143).
edge(48,145).
edge(48,146).
edge(48,147).
edge(48,148).
edge(48,149).
edge(48,151).
edge(48,153).
edge(48,154).
edge(48,158).
edge(48,159).
edge(48,160).
edge(48,162).
edge(48,164).
edge(48,173).
edge(48,174).
edge(48,175).
edge(48,176).
edge(48,177).
edge(48,178).
edge(48,179).
edge(48,180).
edge(48,182).
edge(48,183).
edge(48,185).
edge(48,186).
edge(48,188).
edge(48,189).
edge(48,191).
edge(48,193).
edge(48,194).
edge(48,195).
edge(48,196).
edge(48,197).
edge(48,198).
edge(48,199).
edge(48,200).
edge(48,202).
edge(48,204).
edge(48,206).
edge(48,207).
edge(48,208).
edge(48,210).
edge(48,213).
edge(48,214).
edge(48,215).
edge(48,216).
edge(48,217).
edge(48,220).
edge(48,221).
edge(48,225).
edge(48,226).
edge(48,230).
edge(48,231).
edge(48,232).
edge(48,233).
edge(48,235).
edge(48,238).
edge(48,239).
edge(48,240).
edge(48,243).
edge(48,246).
edge(48,247).
edge(48,250).
edge(49,50).
edge(49,51).
edge(49,52).
edge(49,54).
edge(49,56).
edge(49,57).
edge(49,59).
edge(49,60).
edge(49,61).
edge(49,63).
edge(49,64).
edge(49,65).
edge(49,66).
edge(49,67).
edge(49,68).
edge(49,69).
edge(49,70).
edge(49,71).
edge(49,74).
edge(49,75).
edge(49,76).
edge(49,77).
edge(49,80).
edge(49,81).
edge(49,83).
edge(49,84).
edge(49,85).
edge(49,86).
edge(49,88).
edge(49,90).
edge(49,91).
edge(49,92).
edge(49,93).
edge(49,94).
edge(49,95).
edge(49,96).
edge(49,97).
edge(49,99).
edge(49,100).
edge(49,104).
edge(49,105).
edge(49,108).
edge(49,110).
edge(49,112).
edge(49,114).
edge(49,116).
edge(49,117).
edge(49,119).
edge(49,120).
edge(49,121).
edge(49,122).
edge(49,123).
edge(49,124).
edge(49,126).
edge(49,127).
edge(49,128).
edge(49,129).
edge(49,130).
edge(49,131).
edge(49,133).
edge(49,135).
edge(49,136).
edge(49,137).
edge(49,138).
edge(49,139).
edge(49,140).
edge(49,141).
edge(49,143).
edge(49,146).
edge(49,147).
edge(49,148).
edge(49,149).
edge(49,150).
edge(49,151).
edge(49,152).
edge(49,153).
edge(49,157).
edge(49,158).
edge(49,159).
edge(49,160).
edge(49,161).
edge(49,162).
edge(49,163).
edge(49,165).
edge(49,166).
edge(49,168).
edge(49,169).
edge(49,171).
edge(49,172).
edge(49,173).
edge(49,175).
edge(49,176).
edge(49,177).
edge(49,178).
edge(49,179).
edge(49,180).
edge(49,181).
edge(49,182).
edge(49,183).
edge(49,184).
edge(49,185).
edge(49,188).
edge(49,189).
edge(49,190).
edge(49,191).
edge(49,192).
edge(49,194).
edge(49,195).
edge(49,197).
edge(49,198).
edge(49,199).
edge(49,200).
edge(49,201).
edge(49,202).
edge(49,203).
edge(49,204).
edge(49,206).
edge(49,207).
edge(49,208).
edge(49,209).
edge(49,211).
edge(49,213).
edge(49,214).
edge(49,215).
edge(49,216).
edge(49,217).
edge(49,218).
edge(49,219).
edge(49,220).
edge(49,221).
edge(49,222).
edge(49,223).
edge(49,224).
edge(49,225).
edge(49,226).
edge(49,227).
edge(49,228).
edge(49,229).
edge(49,230).
edge(49,231).
edge(49,232).
edge(49,233).
edge(49,234).
edge(49,235).
edge(49,237).
edge(49,240).
edge(49,241).
edge(49,242).
edge(49,243).
edge(49,245).
edge(49,246).
edge(49,247).
edge(49,248).
edge(49,250).
edge(50,51).
edge(50,52).
edge(50,55).
edge(50,57).
edge(50,60).
edge(50,61).
edge(50,62).
edge(50,64).
edge(50,65).
edge(50,70).
edge(50,72).
edge(50,73).
edge(50,74).
edge(50,75).
edge(50,76).
edge(50,77).
edge(50,78).
edge(50,81).
edge(50,84).
edge(50,86).
edge(50,87).
edge(50,88).
edge(50,89).
edge(50,90).
edge(50,91).
edge(50,93).
edge(50,94).
edge(50,96).
edge(50,97).
edge(50,98).
edge(50,102).
edge(50,104).
edge(50,105).
edge(50,106).
edge(50,107).
edge(50,108).
edge(50,109).
edge(50,110).
edge(50,111).
edge(50,114).
edge(50,115).
edge(50,116).
edge(50,117).
edge(50,118).
edge(50,119).
edge(50,120).
edge(50,121).
edge(50,122).
edge(50,123).
edge(50,124).
edge(50,125).
edge(50,127).
edge(50,129).
edge(50,130).
edge(50,132).
edge(50,133).
edge(50,135).
edge(50,137).
edge(50,138).
edge(50,139).
edge(50,140).
edge(50,141).
edge(50,143).
edge(50,146).
edge(50,147).
edge(50,148).
edge(50,149).
edge(50,150).
edge(50,151).
edge(50,152).
edge(50,154).
edge(50,155).
edge(50,157).
edge(50,158).
edge(50,159).
edge(50,160).
edge(50,162).
edge(50,168).
edge(50,169).
edge(50,170).
edge(50,171).
edge(50,172).
edge(50,173).
edge(50,175).
edge(50,176).
edge(50,178).
edge(50,179).
edge(50,181).
edge(50,183).
edge(50,184).
edge(50,186).
edge(50,188).
edge(50,189).
edge(50,190).
edge(50,191).
edge(50,192).
edge(50,194).
edge(50,197).
edge(50,198).
edge(50,199).
edge(50,201).
edge(50,202).
edge(50,203).
edge(50,204).
edge(50,205).
edge(50,206).
edge(50,207).
edge(50,208).
edge(50,210).
edge(50,213).
edge(50,215).
edge(50,222).
edge(50,226).
edge(50,227).
edge(50,228).
edge(50,230).
edge(50,231).
edge(50,233).
edge(50,235).
edge(50,237).
edge(50,239).
edge(50,240).
edge(50,241).
edge(50,242).
edge(50,244).
edge(50,246).
edge(50,247).
edge(50,248).
edge(50,249).
edge(51,52).
edge(51,53).
edge(51,54).
edge(51,55).
edge(51,56).
edge(51,57).
edge(51,58).
edge(51,59).
edge(51,60).
edge(51,61).
edge(51,63).
edge(51,64).
edge(51,65).
edge(51,66).
edge(51,67).
edge(51,68).
edge(51,69).
edge(51,70).
edge(51,72).
edge(51,74).
edge(51,76).
edge(51,77).
edge(51,78).
edge(51,79).
edge(51,80).
edge(51,81).
edge(51,83).
edge(51,84).
edge(51,85).
edge(51,86).
edge(51,87).
edge(51,88).
edge(51,90).
edge(51,91).
edge(51,92).
edge(51,93).
edge(51,94).
edge(51,95).
edge(51,96).
edge(51,97).
edge(51,99).
edge(51,100).
edge(51,102).
edge(51,104).
edge(51,107).
edge(51,108).
edge(51,109).
edge(51,110).
edge(51,111).
edge(51,112).
edge(51,113).
edge(51,114).
edge(51,115).
edge(51,116).
edge(51,117).
edge(51,118).
edge(51,120).
edge(51,121).
edge(51,122).
edge(51,123).
edge(51,124).
edge(51,125).
edge(51,126).
edge(51,127).
edge(51,128).
edge(51,129).
edge(51,130).
edge(51,131).
edge(51,132).
edge(51,133).
edge(51,134).
edge(51,135).
edge(51,138).
edge(51,139).
edge(51,140).
edge(51,141).
edge(51,142).
edge(51,143).
edge(51,144).
edge(51,146).
edge(51,147).
edge(51,148).
edge(51,149).
edge(51,150).
edge(51,155).
edge(51,156).
edge(51,157).
edge(51,158).
edge(51,159).
edge(51,160).
edge(51,161).
edge(51,162).
edge(51,163).
edge(51,164).
edge(51,165).
edge(51,166).
edge(51,167).
edge(51,168).
edge(51,169).
edge(51,170).
edge(51,172).
edge(51,173).
edge(51,174).
edge(51,175).
edge(51,176).
edge(51,177).
edge(51,179).
edge(51,180).
edge(51,181).
edge(51,182).
edge(51,183).
edge(51,184).
edge(51,185).
edge(51,186).
edge(51,187).
edge(51,188).
edge(51,189).
edge(51,190).
edge(51,191).
edge(51,192).
edge(51,194).
edge(51,195).
edge(51,197).
edge(51,198).
edge(51,199).
edge(51,200).
edge(51,202).
edge(51,203).
edge(51,205).
edge(51,206).
edge(51,207).
edge(51,208).
edge(51,210).
edge(51,211).
edge(51,212).
edge(51,213).
edge(51,214).
edge(51,216).
edge(51,219).
edge(51,220).
edge(51,221).
edge(51,223).
edge(51,224).
edge(51,225).
edge(51,226).
edge(51,227).
edge(51,228).
edge(51,229).
edge(51,231).
edge(51,232).
edge(51,233).
edge(51,234).
edge(51,235).
edge(51,236).
edge(51,237).
edge(51,238).
edge(51,239).
edge(51,240).
edge(51,242).
edge(51,244).
edge(51,245).
edge(51,246).
edge(51,247).
edge(51,248).
edge(51,249).
edge(52,53).
edge(52,54).
edge(52,55).
edge(52,56).
edge(52,57).
edge(52,58).
edge(52,59).
edge(52,60).
edge(52,61).
edge(52,62).
edge(52,63).
edge(52,67).
edge(52,68).
edge(52,69).
edge(52,70).
edge(52,71).
edge(52,72).
edge(52,73).
edge(52,74).
edge(52,75).
edge(52,76).
edge(52,77).
edge(52,79).
edge(52,80).
edge(52,81).
edge(52,83).
edge(52,85).
edge(52,86).
edge(52,87).
edge(52,88).
edge(52,89).
edge(52,91).
edge(52,93).
edge(52,94).
edge(52,95).
edge(52,96).
edge(52,98).
edge(52,100).
edge(52,101).
edge(52,102).
edge(52,104).
edge(52,105).
edge(52,107).
edge(52,108).
edge(52,109).
edge(52,110).
edge(52,111).
edge(52,113).
edge(52,114).
edge(52,115).
edge(52,116).
edge(52,117).
edge(52,118).
edge(52,119).
edge(52,120).
edge(52,121).
edge(52,122).
edge(52,124).
edge(52,125).
edge(52,126).
edge(52,127).
edge(52,128).
edge(52,129).
edge(52,130).
edge(52,131).
edge(52,134).
edge(52,135).
edge(52,136).
edge(52,137).
edge(52,138).
edge(52,139).
edge(52,140).
edge(52,142).
edge(52,143).
edge(52,144).
edge(52,146).
edge(52,149).
edge(52,150).
edge(52,151).
edge(52,153).
edge(52,154).
edge(52,155).
edge(52,156).
edge(52,159).
edge(52,161).
edge(52,162).
edge(52,164).
edge(52,165).
edge(52,166).
edge(52,167).
edge(52,169).
edge(52,170).
edge(52,172).
edge(52,173).
edge(52,174).
edge(52,175).
edge(52,177).
edge(52,178).
edge(52,183).
edge(52,184).
edge(52,185).
edge(52,186).
edge(52,187).
edge(52,188).
edge(52,189).
edge(52,190).
edge(52,191).
edge(52,193).
edge(52,194).
edge(52,197).
edge(52,198).
edge(52,199).
edge(52,200).
edge(52,201).
edge(52,202).
edge(52,203).
edge(52,204).
edge(52,205).
edge(52,206).
edge(52,207).
edge(52,208).
edge(52,212).
edge(52,214).
edge(52,215).
edge(52,216).
edge(52,217).
edge(52,220).
edge(52,221).
edge(52,223).
edge(52,228).
edge(52,230).
edge(52,231).
edge(52,232).
edge(52,234).
edge(52,237).
edge(52,238).
edge(52,239).
edge(52,240).
edge(52,241).
edge(52,242).
edge(52,243).
edge(52,244).
edge(52,245).
edge(52,246).
edge(52,247).
edge(52,249).
edge(52,250).
edge(53,54).
edge(53,55).
edge(53,56).
edge(53,57).
edge(53,59).
edge(53,60).
edge(53,62).
edge(53,63).
edge(53,64).
edge(53,65).
edge(53,66).
edge(53,68).
edge(53,70).
edge(53,72).
edge(53,73).
edge(53,78).
edge(53,79).
edge(53,81).
edge(53,82).
edge(53,83).
edge(53,84).
edge(53,85).
edge(53,86).
edge(53,87).
edge(53,88).
edge(53,91).
edge(53,93).
edge(53,94).
edge(53,95).
edge(53,99).
edge(53,100).
edge(53,102).
edge(53,103).
edge(53,105).
edge(53,107).
edge(53,109).
edge(53,110).
edge(53,111).
edge(53,114).
edge(53,115).
edge(53,116).
edge(53,117).
edge(53,118).
edge(53,121).
edge(53,122).
edge(53,123).
edge(53,124).
edge(53,126).
edge(53,127).
edge(53,128).
edge(53,129).
edge(53,130).
edge(53,132).
edge(53,134).
edge(53,136).
edge(53,137).
edge(53,138).
edge(53,140).
edge(53,141).
edge(53,142).
edge(53,145).
edge(53,146).
edge(53,147).
edge(53,149).
edge(53,153).
edge(53,154).
edge(53,156).
edge(53,157).
edge(53,158).
edge(53,161).
edge(53,162).
edge(53,163).
edge(53,164).
edge(53,166).
edge(53,167).
edge(53,168).
edge(53,170).
edge(53,171).
edge(53,172).
edge(53,174).
edge(53,175).
edge(53,176).
edge(53,177).
edge(53,179).
edge(53,180).
edge(53,181).
edge(53,183).
edge(53,184).
edge(53,185).
edge(53,186).
edge(53,188).
edge(53,191).
edge(53,192).
edge(53,193).
edge(53,194).
edge(53,196).
edge(53,197).
edge(53,198).
edge(53,200).
edge(53,202).
edge(53,203).
edge(53,204).
edge(53,205).
edge(53,206).
edge(53,207).
edge(53,208).
edge(53,212).
edge(53,215).
edge(53,216).
edge(53,217).
edge(53,219).
edge(53,220).
edge(53,221).
edge(53,222).
edge(53,223).
edge(53,225).
edge(53,226).
edge(53,227).
edge(53,228).
edge(53,230).
edge(53,231).
edge(53,234).
edge(53,236).
edge(53,237).
edge(53,244).
edge(53,246).
edge(53,247).
edge(53,248).
edge(53,249).
edge(53,250).
edge(54,56).
edge(54,59).
edge(54,66).
edge(54,71).
edge(54,73).
edge(54,74).
edge(54,78).
edge(54,79).
edge(54,82).
edge(54,83).
edge(54,84).
edge(54,85).
edge(54,88).
edge(54,89).
edge(54,90).
edge(54,91).
edge(54,93).
edge(54,94).
edge(54,95).
edge(54,96).
edge(54,97).
edge(54,100).
edge(54,102).
edge(54,103).
edge(54,104).
edge(54,106).
edge(54,107).
edge(54,109).
edge(54,110).
edge(54,111).
edge(54,112).
edge(54,113).
edge(54,114).
edge(54,115).
edge(54,117).
edge(54,119).
edge(54,122).
edge(54,124).
edge(54,126).
edge(54,128).
edge(54,129).
edge(54,130).
edge(54,134).
edge(54,135).
edge(54,136).
edge(54,137).
edge(54,138).
edge(54,139).
edge(54,140).
edge(54,142).
edge(54,143).
edge(54,146).
edge(54,147).
edge(54,149).
edge(54,151).
edge(54,152).
edge(54,154).
edge(54,155).
edge(54,156).
edge(54,157).
edge(54,158).
edge(54,159).
edge(54,161).
edge(54,163).
edge(54,165).
edge(54,167).
edge(54,168).
edge(54,173).
edge(54,174).
edge(54,176).
edge(54,179).
edge(54,180).
edge(54,181).
edge(54,182).
edge(54,183).
edge(54,184).
edge(54,185).
edge(54,186).
edge(54,187).
edge(54,190).
edge(54,191).
edge(54,192).
edge(54,194).
edge(54,195).
edge(54,199).
edge(54,201).
edge(54,202).
edge(54,203).
edge(54,205).
edge(54,206).
edge(54,209).
edge(54,210).
edge(54,212).
edge(54,214).
edge(54,220).
edge(54,221).
edge(54,222).
edge(54,226).
edge(54,227).
edge(54,228).
edge(54,229).
edge(54,230).
edge(54,231).
edge(54,235).
edge(54,236).
edge(54,237).
edge(54,240).
edge(54,242).
edge(54,245).
edge(54,246).
edge(54,248).
edge(54,249).
edge(54,250).
edge(55,56).
edge(55,58).
edge(55,59).
edge(55,61).
edge(55,62).
edge(55,64).
edge(55,66).
edge(55,68).
edge(55,69).
edge(55,72).
edge(55,75).
edge(55,77).
edge(55,78).
edge(55,79).
edge(55,80).
edge(55,81).
edge(55,82).
edge(55,84).
edge(55,85).
edge(55,86).
edge(55,87).
edge(55,88).
edge(55,90).
edge(55,92).
edge(55,93).
edge(55,94).
edge(55,95).
edge(55,96).
edge(55,97).
edge(55,98).
edge(55,100).
edge(55,101).
edge(55,102).
edge(55,103).
edge(55,106).
edge(55,107).
edge(55,109).
edge(55,110).
edge(55,113).
edge(55,114).
edge(55,115).
edge(55,116).
edge(55,117).
edge(55,118).
edge(55,120).
edge(55,121).
edge(55,123).
edge(55,124).
edge(55,125).
edge(55,127).
edge(55,128).
edge(55,130).
edge(55,131).
edge(55,133).
edge(55,134).
edge(55,135).
edge(55,138).
edge(55,139).
edge(55,140).
edge(55,142).
edge(55,143).
edge(55,144).
edge(55,145).
edge(55,146).
edge(55,147).
edge(55,148).
edge(55,149).
edge(55,150).
edge(55,151).
edge(55,152).
edge(55,153).
edge(55,154).
edge(55,155).
edge(55,156).
edge(55,157).
edge(55,158).
edge(55,159).
edge(55,160).
edge(55,162).
edge(55,163).
edge(55,165).
edge(55,166).
edge(55,167).
edge(55,168).
edge(55,169).
edge(55,170).
edge(55,171).
edge(55,172).
edge(55,173).
edge(55,177).
edge(55,178).
edge(55,179).
edge(55,180).
edge(55,181).
edge(55,184).
edge(55,185).
edge(55,186).
edge(55,187).
edge(55,188).
edge(55,190).
edge(55,191).
edge(55,193).
edge(55,194).
edge(55,195).
edge(55,196).
edge(55,197).
edge(55,199).
edge(55,200).
edge(55,202).
edge(55,203).
edge(55,204).
edge(55,205).
edge(55,206).
edge(55,207).
edge(55,208).
edge(55,211).
edge(55,212).
edge(55,214).
edge(55,215).
edge(55,216).
edge(55,217).
edge(55,219).
edge(55,222).
edge(55,224).
edge(55,227).
edge(55,228).
edge(55,230).
edge(55,232).
edge(55,233).
edge(55,234).
edge(55,235).
edge(55,236).
edge(55,238).
edge(55,241).
edge(55,242).
edge(55,243).
edge(55,244).
edge(55,247).
edge(55,248).
edge(55,249).
edge(55,250).
edge(56,57).
edge(56,59).
edge(56,61).
edge(56,62).
edge(56,64).
edge(56,65).
edge(56,66).
edge(56,67).
edge(56,68).
edge(56,69).
edge(56,70).
edge(56,71).
edge(56,72).
edge(56,73).
edge(56,74).
edge(56,76).
edge(56,77).
edge(56,78).
edge(56,79).
edge(56,80).
edge(56,81).
edge(56,82).
edge(56,84).
edge(56,85).
edge(56,87).
edge(56,88).
edge(56,91).
edge(56,92).
edge(56,93).
edge(56,94).
edge(56,95).
edge(56,97).
edge(56,98).
edge(56,99).
edge(56,102).
edge(56,103).
edge(56,104).
edge(56,105).
edge(56,106).
edge(56,108).
edge(56,109).
edge(56,110).
edge(56,111).
edge(56,112).
edge(56,113).
edge(56,114).
edge(56,115).
edge(56,116).
edge(56,117).
edge(56,118).
edge(56,119).
edge(56,120).
edge(56,121).
edge(56,122).
edge(56,123).
edge(56,124).
edge(56,125).
edge(56,128).
edge(56,131).
edge(56,132).
edge(56,133).
edge(56,134).
edge(56,135).
edge(56,138).
edge(56,139).
edge(56,140).
edge(56,141).
edge(56,142).
edge(56,144).
edge(56,145).
edge(56,146).
edge(56,147).
edge(56,148).
edge(56,149).
edge(56,150).
edge(56,152).
edge(56,153).
edge(56,155).
edge(56,156).
edge(56,157).
edge(56,158).
edge(56,159).
edge(56,160).
edge(56,161).
edge(56,163).
edge(56,164).
edge(56,167).
edge(56,168).
edge(56,169).
edge(56,171).
edge(56,172).
edge(56,173).
edge(56,174).
edge(56,176).
edge(56,177).
edge(56,178).
edge(56,179).
edge(56,180).
edge(56,181).
edge(56,182).
edge(56,183).
edge(56,185).
edge(56,186).
edge(56,188).
edge(56,190).
edge(56,191).
edge(56,192).
edge(56,193).
edge(56,194).
edge(56,195).
edge(56,196).
edge(56,199).
edge(56,201).
edge(56,204).
edge(56,205).
edge(56,207).
edge(56,209).
edge(56,211).
edge(56,212).
edge(56,215).
edge(56,219).
edge(56,220).
edge(56,221).
edge(56,223).
edge(56,224).
edge(56,225).
edge(56,226).
edge(56,227).
edge(56,229).
edge(56,231).
edge(56,232).
edge(56,233).
edge(56,235).
edge(56,236).
edge(56,237).
edge(56,239).
edge(56,240).
edge(56,241).
edge(56,242).
edge(56,243).
edge(56,244).
edge(56,245).
edge(56,246).
edge(56,247).
edge(56,248).
edge(56,249).
edge(56,250).
edge(57,59).
edge(57,60).
edge(57,61).
edge(57,62).
edge(57,67).
edge(57,70).
edge(57,72).
edge(57,74).
edge(57,75).
edge(57,76).
edge(57,77).
edge(57,78).
edge(57,79).
edge(57,80).
edge(57,81).
edge(57,82).
edge(57,84).
edge(57,85).
edge(57,87).
edge(57,88).
edge(57,89).
edge(57,90).
edge(57,91).
edge(57,92).
edge(57,93).
edge(57,94).
edge(57,95).
edge(57,97).
edge(57,100).
edge(57,103).
edge(57,107).
edge(57,108).
edge(57,109).
edge(57,110).
edge(57,111).
edge(57,112).
edge(57,113).
edge(57,116).
edge(57,117).
edge(57,121).
edge(57,122).
edge(57,123).
edge(57,124).
edge(57,125).
edge(57,127).
edge(57,128).
edge(57,129).
edge(57,130).
edge(57,131).
edge(57,132).
edge(57,138).
edge(57,139).
edge(57,141).
edge(57,142).
edge(57,143).
edge(57,144).
edge(57,145).
edge(57,146).
edge(57,147).
edge(57,151).
edge(57,153).
edge(57,155).
edge(57,156).
edge(57,157).
edge(57,158).
edge(57,159).
edge(57,160).
edge(57,161).
edge(57,162).
edge(57,163).
edge(57,165).
edge(57,166).
edge(57,167).
edge(57,168).
edge(57,169).
edge(57,170).
edge(57,171).
edge(57,172).
edge(57,174).
edge(57,175).
edge(57,177).
edge(57,178).
edge(57,179).
edge(57,180).
edge(57,181).
edge(57,182).
edge(57,183).
edge(57,184).
edge(57,188).
edge(57,190).
edge(57,191).
edge(57,192).
edge(57,193).
edge(57,194).
edge(57,195).
edge(57,197).
edge(57,200).
edge(57,201).
edge(57,203).
edge(57,204).
edge(57,206).
edge(57,208).
edge(57,210).
edge(57,215).
edge(57,216).
edge(57,217).
edge(57,218).
edge(57,219).
edge(57,220).
edge(57,221).
edge(57,223).
edge(57,224).
edge(57,225).
edge(57,226).
edge(57,227).
edge(57,228).
edge(57,230).
edge(57,232).
edge(57,234).
edge(57,236).
edge(57,237).
edge(57,238).
edge(57,239).
edge(57,240).
edge(57,241).
edge(57,242).
edge(57,244).
edge(57,245).
edge(57,246).
edge(57,247).
edge(57,248).
edge(57,250).
edge(58,59).
edge(58,61).
edge(58,65).
edge(58,66).
edge(58,68).
edge(58,69).
edge(58,70).
edge(58,71).
edge(58,76).
edge(58,77).
edge(58,78).
edge(58,79).
edge(58,80).
edge(58,82).
edge(58,83).
edge(58,86).
edge(58,87).
edge(58,88).
edge(58,90).
edge(58,92).
edge(58,94).
edge(58,95).
edge(58,96).
edge(58,97).
edge(58,98).
edge(58,99).
edge(58,102).
edge(58,103).
edge(58,104).
edge(58,107).
edge(58,108).
edge(58,109).
edge(58,110).
edge(58,111).
edge(58,112).
edge(58,113).
edge(58,115).
edge(58,116).
edge(58,117).
edge(58,119).
edge(58,121).
edge(58,122).
edge(58,127).
edge(58,128).
edge(58,129).
edge(58,131).
edge(58,132).
edge(58,136).
edge(58,137).
edge(58,144).
edge(58,145).
edge(58,146).
edge(58,148).
edge(58,150).
edge(58,152).
edge(58,153).
edge(58,154).
edge(58,156).
edge(58,157).
edge(58,159).
edge(58,161).
edge(58,163).
edge(58,164).
edge(58,166).
edge(58,167).
edge(58,169).
edge(58,170).
edge(58,171).
edge(58,172).
edge(58,173).
edge(58,174).
edge(58,175).
edge(58,176).
edge(58,177).
edge(58,180).
edge(58,181).
edge(58,182).
edge(58,184).
edge(58,186).
edge(58,188).
edge(58,189).
edge(58,190).
edge(58,191).
edge(58,192).
edge(58,193).
edge(58,194).
edge(58,197).
edge(58,198).
edge(58,199).
edge(58,201).
edge(58,202).
edge(58,203).
edge(58,204).
edge(58,207).
edge(58,208).
edge(58,209).
edge(58,210).
edge(58,212).
edge(58,213).
edge(58,214).
edge(58,215).
edge(58,216).
edge(58,218).
edge(58,220).
edge(58,224).
edge(58,226).
edge(58,229).
edge(58,231).
edge(58,234).
edge(58,237).
edge(58,238).
edge(58,240).
edge(58,244).
edge(58,245).
edge(58,247).
edge(58,248).
edge(58,250).
edge(59,61).
edge(59,64).
edge(59,65).
edge(59,66).
edge(59,70).
edge(59,75).
edge(59,76).
edge(59,77).
edge(59,78).
edge(59,79).
edge(59,82).
edge(59,83).
edge(59,84).
edge(59,85).
edge(59,86).
edge(59,87).
edge(59,88).
edge(59,90).
edge(59,91).
edge(59,92).
edge(59,94).
edge(59,95).
edge(59,96).
edge(59,97).
edge(59,99).
edge(59,102).
edge(59,105).
edge(59,106).
edge(59,107).
edge(59,109).
edge(59,111).
edge(59,112).
edge(59,114).
edge(59,115).
edge(59,116).
edge(59,117).
edge(59,118).
edge(59,121).
edge(59,122).
edge(59,123).
edge(59,124).
edge(59,125).
edge(59,126).
edge(59,127).
edge(59,128).
edge(59,129).
edge(59,130).
edge(59,131).
edge(59,132).
edge(59,133).
edge(59,134).
edge(59,135).
edge(59,136).
edge(59,138).
edge(59,140).
edge(59,142).
edge(59,144).
edge(59,145).
edge(59,147).
edge(59,148).
edge(59,150).
edge(59,157).
edge(59,160).
edge(59,161).
edge(59,162).
edge(59,163).
edge(59,164).
edge(59,165).
edge(59,167).
edge(59,169).
edge(59,170).
edge(59,175).
edge(59,176).
edge(59,177).
edge(59,178).
edge(59,179).
edge(59,180).
edge(59,181).
edge(59,182).
edge(59,183).
edge(59,184).
edge(59,185).
edge(59,186).
edge(59,187).
edge(59,188).
edge(59,189).
edge(59,191).
edge(59,193).
edge(59,194).
edge(59,196).
edge(59,197).
edge(59,198).
edge(59,199).
edge(59,200).
edge(59,201).
edge(59,202).
edge(59,203).
edge(59,204).
edge(59,206).
edge(59,207).
edge(59,208).
edge(59,210).
edge(59,211).
edge(59,213).
edge(59,214).
edge(59,216).
edge(59,217).
edge(59,218).
edge(59,219).
edge(59,220).
edge(59,221).
edge(59,222).
edge(59,224).
edge(59,225).
edge(59,226).
edge(59,227).
edge(59,228).
edge(59,229).
edge(59,230).
edge(59,231).
edge(59,233).
edge(59,234).
edge(59,235).
edge(59,238).
edge(59,242).
edge(59,243).
edge(59,244).
edge(59,246).
edge(59,248).
edge(60,61).
edge(60,62).
edge(60,66).
edge(60,67).
edge(60,69).
edge(60,70).
edge(60,71).
edge(60,72).
edge(60,74).
edge(60,75).
edge(60,77).
edge(60,79).
edge(60,80).
edge(60,83).
edge(60,84).
edge(60,85).
edge(60,86).
edge(60,89).
edge(60,90).
edge(60,91).
edge(60,92).
edge(60,93).
edge(60,94).
edge(60,95).
edge(60,96).
edge(60,101).
edge(60,102).
edge(60,103).
edge(60,105).
edge(60,107).
edge(60,109).
edge(60,110).
edge(60,111).
edge(60,112).
edge(60,116).
edge(60,117).
edge(60,119).
edge(60,120).
edge(60,121).
edge(60,122).
edge(60,126).
edge(60,127).
edge(60,129).
edge(60,130).
edge(60,131).
edge(60,137).
edge(60,138).
edge(60,140).
edge(60,141).
edge(60,142).
edge(60,143).
edge(60,144).
edge(60,145).
edge(60,146).
edge(60,147).
edge(60,149).
edge(60,150).
edge(60,151).
edge(60,152).
edge(60,153).
edge(60,154).
edge(60,155).
edge(60,156).
edge(60,159).
edge(60,161).
edge(60,162).
edge(60,163).
edge(60,164).
edge(60,165).
edge(60,166).
edge(60,168).
edge(60,170).
edge(60,172).
edge(60,173).
edge(60,175).
edge(60,178).
edge(60,180).
edge(60,183).
edge(60,184).
edge(60,185).
edge(60,187).
edge(60,189).
edge(60,190).
edge(60,191).
edge(60,192).
edge(60,193).
edge(60,194).
edge(60,196).
edge(60,197).
edge(60,199).
edge(60,200).
edge(60,202).
edge(60,204).
edge(60,206).
edge(60,207).
edge(60,208).
edge(60,211).
edge(60,212).
edge(60,214).
edge(60,215).
edge(60,216).
edge(60,217).
edge(60,219).
edge(60,221).
edge(60,223).
edge(60,224).
edge(60,226).
edge(60,227).
edge(60,229).
edge(60,230).
edge(60,235).
edge(60,236).
edge(60,237).
edge(60,238).
edge(60,242).
edge(60,243).
edge(60,245).
edge(60,249).
edge(60,250).
edge(61,62).
edge(61,63).
edge(61,65).
edge(61,66).
edge(61,67).
edge(61,68).
edge(61,69).
edge(61,72).
edge(61,73).
edge(61,75).
edge(61,76).
edge(61,77).
edge(61,78).
edge(61,79).
edge(61,80).
edge(61,81).
edge(61,82).
edge(61,83).
edge(61,86).
edge(61,87).
edge(61,88).
edge(61,89).
edge(61,91).
edge(61,92).
edge(61,93).
edge(61,95).
edge(61,98).
edge(61,99).
edge(61,101).
edge(61,102).
edge(61,103).
edge(61,104).
edge(61,107).
edge(61,108).
edge(61,109).
edge(61,110).
edge(61,112).
edge(61,114).
edge(61,116).
edge(61,117).
edge(61,118).
edge(61,119).
edge(61,120).
edge(61,122).
edge(61,123).
edge(61,126).
edge(61,127).
edge(61,129).
edge(61,132).
edge(61,134).
edge(61,135).
edge(61,138).
edge(61,139).
edge(61,141).
edge(61,142).
edge(61,146).
edge(61,148).
edge(61,149).
edge(61,150).
edge(61,151).
edge(61,152).
edge(61,153).
edge(61,154).
edge(61,155).
edge(61,159).
edge(61,160).
edge(61,162).
edge(61,163).
edge(61,164).
edge(61,165).
edge(61,167).
edge(61,168).
edge(61,169).
edge(61,170).
edge(61,171).
edge(61,172).
edge(61,175).
edge(61,176).
edge(61,177).
edge(61,179).
edge(61,181).
edge(61,182).
edge(61,183).
edge(61,184).
edge(61,185).
edge(61,186).
edge(61,188).
edge(61,189).
edge(61,192).
edge(61,193).
edge(61,194).
edge(61,195).
edge(61,196).
edge(61,199).
edge(61,200).
edge(61,202).
edge(61,208).
edge(61,209).
edge(61,210).
edge(61,211).
edge(61,212).
edge(61,213).
edge(61,214).
edge(61,215).
edge(61,216).
edge(61,217).
edge(61,218).
edge(61,221).
edge(61,223).
edge(61,225).
edge(61,227).
edge(61,229).
edge(61,230).
edge(61,231).
edge(61,232).
edge(61,233).
edge(61,234).
edge(61,236).
edge(61,237).
edge(61,239).
edge(61,241).
edge(61,243).
edge(61,244).
edge(61,245).
edge(61,247).
edge(61,248).
edge(62,63).
edge(62,65).
edge(62,66).
edge(62,70).
edge(62,72).
edge(62,74).
edge(62,75).
edge(62,76).
edge(62,77).
edge(62,78).
edge(62,79).
edge(62,80).
edge(62,81).
edge(62,82).
edge(62,83).
edge(62,84).
edge(62,85).
edge(62,86).
edge(62,87).
edge(62,88).
edge(62,90).
edge(62,91).
edge(62,93).
edge(62,95).
edge(62,96).
edge(62,97).
edge(62,99).
edge(62,100).
edge(62,102).
edge(62,104).
edge(62,105).
edge(62,107).
edge(62,108).
edge(62,109).
edge(62,110).
edge(62,111).
edge(62,112).
edge(62,113).
edge(62,114).
edge(62,115).
edge(62,118).
edge(62,119).
edge(62,120).
edge(62,121).
edge(62,122).
edge(62,123).
edge(62,124).
edge(62,125).
edge(62,126).
edge(62,128).
edge(62,129).
edge(62,130).
edge(62,131).
edge(62,132).
edge(62,134).
edge(62,136).
edge(62,137).
edge(62,138).
edge(62,139).
edge(62,141).
edge(62,143).
edge(62,145).
edge(62,146).
edge(62,147).
edge(62,148).
edge(62,153).
edge(62,154).
edge(62,155).
edge(62,156).
edge(62,157).
edge(62,159).
edge(62,163).
edge(62,165).
edge(62,167).
edge(62,168).
edge(62,169).
edge(62,171).
edge(62,172).
edge(62,174).
edge(62,176).
edge(62,177).
edge(62,178).
edge(62,181).
edge(62,182).
edge(62,183).
edge(62,186).
edge(62,188).
edge(62,190).
edge(62,191).
edge(62,192).
edge(62,193).
edge(62,194).
edge(62,195).
edge(62,196).
edge(62,197).
edge(62,198).
edge(62,199).
edge(62,200).
edge(62,201).
edge(62,202).
edge(62,203).
edge(62,204).
edge(62,205).
edge(62,207).
edge(62,208).
edge(62,209).
edge(62,212).
edge(62,214).
edge(62,216).
edge(62,217).
edge(62,219).
edge(62,220).
edge(62,222).
edge(62,223).
edge(62,224).
edge(62,227).
edge(62,228).
edge(62,231).
edge(62,233).
edge(62,234).
edge(62,236).
edge(62,237).
edge(62,240).
edge(62,241).
edge(62,243).
edge(62,244).
edge(62,245).
edge(62,247).
edge(62,248).
edge(63,64).
edge(63,65).
edge(63,66).
edge(63,67).
edge(63,68).
edge(63,69).
edge(63,70).
edge(63,71).
edge(63,73).
edge(63,74).
edge(63,75).
edge(63,76).
edge(63,80).
edge(63,81).
edge(63,82).
edge(63,83).
edge(63,85).
edge(63,87).
edge(63,88).
edge(63,90).
edge(63,91).
edge(63,92).
edge(63,93).
edge(63,94).
edge(63,95).
edge(63,96).
edge(63,98).
edge(63,99).
edge(63,100).
edge(63,102).
edge(63,105).
edge(63,108).
edge(63,109).
edge(63,110).
edge(63,111).
edge(63,112).
edge(63,119).
edge(63,121).
edge(63,122).
edge(63,123).
edge(63,124).
edge(63,125).
edge(63,126).
edge(63,127).
edge(63,129).
edge(63,130).
edge(63,132).
edge(63,135).
edge(63,136).
edge(63,137).
edge(63,138).
edge(63,139).
edge(63,141).
edge(63,142).
edge(63,143).
edge(63,144).
edge(63,148).
edge(63,149).
edge(63,150).
edge(63,151).
edge(63,153).
edge(63,155).
edge(63,157).
edge(63,158).
edge(63,159).
edge(63,160).
edge(63,161).
edge(63,164).
edge(63,166).
edge(63,168).
edge(63,169).
edge(63,170).
edge(63,173).
edge(63,175).
edge(63,176).
edge(63,177).
edge(63,178).
edge(63,179).
edge(63,183).
edge(63,184).
edge(63,185).
edge(63,190).
edge(63,191).
edge(63,192).
edge(63,193).
edge(63,194).
edge(63,196).
edge(63,198).
edge(63,199).
edge(63,202).
edge(63,212).
edge(63,214).
edge(63,215).
edge(63,216).
edge(63,218).
edge(63,219).
edge(63,224).
edge(63,225).
edge(63,226).
edge(63,227).
edge(63,229).
edge(63,230).
edge(63,231).
edge(63,233).
edge(63,234).
edge(63,235).
edge(63,236).
edge(63,237).
edge(63,238).
edge(63,241).
edge(63,243).
edge(63,244).
edge(63,246).
edge(63,247).
edge(63,248).
edge(63,249).
edge(63,250).
edge(64,65).
edge(64,67).
edge(64,68).
edge(64,70).
edge(64,71).
edge(64,72).
edge(64,73).
edge(64,75).
edge(64,77).
edge(64,78).
edge(64,80).
edge(64,84).
edge(64,87).
edge(64,88).
edge(64,90).
edge(64,91).
edge(64,92).
edge(64,97).
edge(64,98).
edge(64,99).
edge(64,101).
edge(64,102).
edge(64,103).
edge(64,107).
edge(64,109).
edge(64,112).
edge(64,115).
edge(64,116).
edge(64,117).
edge(64,119).
edge(64,120).
edge(64,121).
edge(64,123).
edge(64,124).
edge(64,125).
edge(64,127).
edge(64,129).
edge(64,130).
edge(64,131).
edge(64,132).
edge(64,134).
edge(64,135).
edge(64,136).
edge(64,139).
edge(64,140).
edge(64,141).
edge(64,142).
edge(64,143).
edge(64,144).
edge(64,145).
edge(64,146).
edge(64,147).
edge(64,148).
edge(64,155).
edge(64,156).
edge(64,158).
edge(64,159).
edge(64,160).
edge(64,161).
edge(64,162).
edge(64,164).
edge(64,165).
edge(64,167).
edge(64,168).
edge(64,170).
edge(64,172).
edge(64,173).
edge(64,175).
edge(64,176).
edge(64,177).
edge(64,178).
edge(64,179).
edge(64,180).
edge(64,181).
edge(64,185).
edge(64,187).
edge(64,188).
edge(64,191).
edge(64,194).
edge(64,197).
edge(64,200).
edge(64,201).
edge(64,202).
edge(64,203).
edge(64,205).
edge(64,208).
edge(64,209).
edge(64,211).
edge(64,212).
edge(64,213).
edge(64,215).
edge(64,216).
edge(64,217).
edge(64,218).
edge(64,219).
edge(64,220).
edge(64,222).
edge(64,223).
edge(64,224).
edge(64,228).
edge(64,230).
edge(64,231).
edge(64,234).
edge(64,236).
edge(64,241).
edge(64,242).
edge(64,243).
edge(64,245).
edge(64,246).
edge(64,248).
edge(64,250).
edge(65,66).
edge(65,67).
edge(65,70).
edge(65,71).
edge(65,72).
edge(65,73).
edge(65,74).
edge(65,76).
edge(65,79).
edge(65,80).
edge(65,82).
edge(65,84).
edge(65,86).
edge(65,87).
edge(65,88).
edge(65,89).
edge(65,90).
edge(65,91).
edge(65,92).
edge(65,93).
edge(65,94).
edge(65,95).
edge(65,96).
edge(65,99).
edge(65,101).
edge(65,102).
edge(65,103).
edge(65,104).
edge(65,105).
edge(65,108).
edge(65,110).
edge(65,112).
edge(65,113).
edge(65,114).
edge(65,115).
edge(65,116).
edge(65,117).
edge(65,118).
edge(65,119).
edge(65,120).
edge(65,121).
edge(65,123).
edge(65,124).
edge(65,125).
edge(65,126).
edge(65,127).
edge(65,128).
edge(65,129).
edge(65,130).
edge(65,131).
edge(65,132).
edge(65,134).
edge(65,135).
edge(65,136).
edge(65,137).
edge(65,138).
edge(65,139).
edge(65,140).
edge(65,141).
edge(65,142).
edge(65,143).
edge(65,144).
edge(65,145).
edge(65,146).
edge(65,147).
edge(65,148).
edge(65,149).
edge(65,150).
edge(65,152).
edge(65,153).
edge(65,154).
edge(65,157).
edge(65,160).
edge(65,162).
edge(65,163).
edge(65,166).
edge(65,168).
edge(65,169).
edge(65,170).
edge(65,171).
edge(65,172).
edge(65,178).
edge(65,179).
edge(65,181).
edge(65,183).
edge(65,184).
edge(65,185).
edge(65,188).
edge(65,190).
edge(65,191).
edge(65,192).
edge(65,193).
edge(65,195).
edge(65,197).
edge(65,198).
edge(65,199).
edge(65,200).
edge(65,203).
edge(65,204).
edge(65,207).
edge(65,208).
edge(65,211).
edge(65,213).
edge(65,215).
edge(65,216).
edge(65,217).
edge(65,218).
edge(65,219).
edge(65,220).
edge(65,221).
edge(65,222).
edge(65,223).
edge(65,225).
edge(65,227).
edge(65,228).
edge(65,229).
edge(65,231).
edge(65,232).
edge(65,233).
edge(65,234).
edge(65,235).
edge(65,237).
edge(65,238).
edge(65,239).
edge(65,240).
edge(65,241).
edge(65,242).
edge(65,243).
edge(65,244).
edge(65,245).
edge(65,246).
edge(65,247).
edge(65,249).
edge(65,250).
edge(66,67).
edge(66,69).
edge(66,70).
edge(66,71).
edge(66,72).
edge(66,74).
edge(66,75).
edge(66,76).
edge(66,77).
edge(66,78).
edge(66,79).
edge(66,80).
edge(66,82).
edge(66,83).
edge(66,84).
edge(66,85).
edge(66,87).
edge(66,88).
edge(66,89).
edge(66,91).
edge(66,92).
edge(66,93).
edge(66,94).
edge(66,95).
edge(66,98).
edge(66,99).
edge(66,102).
edge(66,104).
edge(66,105).
edge(66,106).
edge(66,108).
edge(66,109).
edge(66,112).
edge(66,113).
edge(66,114).
edge(66,115).
edge(66,117).
edge(66,118).
edge(66,119).
edge(66,121).
edge(66,122).
edge(66,123).
edge(66,124).
edge(66,126).
edge(66,127).
edge(66,128).
edge(66,131).
edge(66,134).
edge(66,135).
edge(66,136).
edge(66,138).
edge(66,139).
edge(66,141).
edge(66,145).
edge(66,146).
edge(66,147).
edge(66,148).
edge(66,149).
edge(66,150).
edge(66,153).
edge(66,154).
edge(66,157).
edge(66,159).
edge(66,160).
edge(66,161).
edge(66,162).
edge(66,163).
edge(66,164).
edge(66,166).
edge(66,167).
edge(66,168).
edge(66,169).
edge(66,171).
edge(66,174).
edge(66,176).
edge(66,177).
edge(66,178).
edge(66,179).
edge(66,181).
edge(66,182).
edge(66,183).
edge(66,185).
edge(66,186).
edge(66,187).
edge(66,188).
edge(66,191).
edge(66,192).
edge(66,193).
edge(66,194).
edge(66,195).
edge(66,196).
edge(66,198).
edge(66,199).
edge(66,200).
edge(66,202).
edge(66,203).
edge(66,204).
edge(66,205).
edge(66,206).
edge(66,208).
edge(66,209).
edge(66,211).
edge(66,216).
edge(66,218).
edge(66,222).
edge(66,224).
edge(66,225).
edge(66,226).
edge(66,227).
edge(66,228).
edge(66,229).
edge(66,230).
edge(66,231).
edge(66,232).
edge(66,233).
edge(66,234).
edge(66,235).
edge(66,237).
edge(66,240).
edge(66,241).
edge(66,242).
edge(66,243).
edge(66,244).
edge(66,245).
edge(66,246).
edge(66,248).
edge(66,249).
edge(66,250).
edge(67,70).
edge(67,73).
edge(67,74).
edge(67,76).
edge(67,77).
edge(67,78).
edge(67,79).
edge(67,80).
edge(67,81).
edge(67,82).
edge(67,83).
edge(67,84).
edge(67,85).
edge(67,86).
edge(67,87).
edge(67,90).
edge(67,91).
edge(67,92).
edge(67,94).
edge(67,95).
edge(67,96).
edge(67,97).
edge(67,98).
edge(67,99).
edge(67,100).
edge(67,102).
edge(67,105).
edge(67,106).
edge(67,108).
edge(67,110).
edge(67,113).
edge(67,114).
edge(67,115).
edge(67,116).
edge(67,119).
edge(67,120).
edge(67,121).
edge(67,123).
edge(67,125).
edge(67,126).
edge(67,127).
edge(67,128).
edge(67,129).
edge(67,132).
edge(67,133).
edge(67,134).
edge(67,140).
edge(67,142).
edge(67,146).
edge(67,147).
edge(67,149).
edge(67,150).
edge(67,152).
edge(67,154).
edge(67,156).
edge(67,158).
edge(67,161).
edge(67,168).
edge(67,169).
edge(67,171).
edge(67,172).
edge(67,173).
edge(67,174).
edge(67,175).
edge(67,176).
edge(67,178).
edge(67,182).
edge(67,183).
edge(67,185).
edge(67,186).
edge(67,187).
edge(67,188).
edge(67,190).
edge(67,192).
edge(67,194).
edge(67,197).
edge(67,198).
edge(67,204).
edge(67,207).
edge(67,208).
edge(67,210).
edge(67,211).
edge(67,212).
edge(67,213).
edge(67,216).
edge(67,218).
edge(67,219).
edge(67,220).
edge(67,221).
edge(67,222).
edge(67,225).
edge(67,226).
edge(67,227).
edge(67,228).
edge(67,230).
edge(67,232).
edge(67,233).
edge(67,234).
edge(67,235).
edge(67,237).
edge(67,238).
edge(67,239).
edge(67,240).
edge(67,243).
edge(67,248).
edge(67,249).
edge(67,250).
edge(68,70).
edge(68,71).
edge(68,72).
edge(68,74).
edge(68,75).
edge(68,76).
edge(68,78).
edge(68,79).
edge(68,80).
edge(68,83).
edge(68,84).
edge(68,85).
edge(68,86).
edge(68,88).
edge(68,90).
edge(68,92).
edge(68,93).
edge(68,94).
edge(68,95).
edge(68,96).
edge(68,97).
edge(68,98).
edge(68,99).
edge(68,100).
edge(68,101).
edge(68,102).
edge(68,104).
edge(68,106).
edge(68,107).
edge(68,108).
edge(68,109).
edge(68,110).
edge(68,111).
edge(68,113).
edge(68,115).
edge(68,116).
edge(68,117).
edge(68,119).
edge(68,124).
edge(68,125).
edge(68,129).
edge(68,130).
edge(68,131).
edge(68,132).
edge(68,133).
edge(68,134).
edge(68,135).
edge(68,136).
edge(68,138).
edge(68,140).
edge(68,141).
edge(68,142).
edge(68,145).
edge(68,146).
edge(68,148).
edge(68,153).
edge(68,154).
edge(68,155).
edge(68,156).
edge(68,157).
edge(68,161).
edge(68,162).
edge(68,164).
edge(68,165).
edge(68,166).
edge(68,167).
edge(68,171).
edge(68,172).
edge(68,174).
edge(68,177).
edge(68,178).
edge(68,182).
edge(68,183).
edge(68,184).
edge(68,185).
edge(68,188).
edge(68,191).
edge(68,192).
edge(68,193).
edge(68,194).
edge(68,196).
edge(68,200).
edge(68,202).
edge(68,204).
edge(68,205).
edge(68,207).
edge(68,208).
edge(68,210).
edge(68,211).
edge(68,212).
edge(68,213).
edge(68,216).
edge(68,218).
edge(68,219).
edge(68,220).
edge(68,221).
edge(68,222).
edge(68,225).
edge(68,226).
edge(68,227).
edge(68,231).
edge(68,232).
edge(68,234).
edge(68,235).
edge(68,236).
edge(68,237).
edge(68,241).
edge(68,243).
edge(68,244).
edge(68,245).
edge(68,247).
edge(68,249).
edge(69,70).
edge(69,74).
edge(69,75).
edge(69,78).
edge(69,79).
edge(69,80).
edge(69,81).
edge(69,83).
edge(69,84).
edge(69,85).
edge(69,86).
edge(69,87).
edge(69,88).
edge(69,90).
edge(69,91).
edge(69,94).
edge(69,95).
edge(69,96).
edge(69,97).
edge(69,98).
edge(69,99).
edge(69,100).
edge(69,101).
edge(69,102).
edge(69,103).
edge(69,105).
edge(69,106).
edge(69,107).
edge(69,108).
edge(69,112).
edge(69,113).
edge(69,117).
edge(69,118).
edge(69,119).
edge(69,120).
edge(69,122).
edge(69,123).
edge(69,124).
edge(69,126).
edge(69,127).
edge(69,128).
edge(69,129).
edge(69,130).
edge(69,131).
edge(69,132).
edge(69,133).
edge(69,136).
edge(69,139).
edge(69,140).
edge(69,141).
edge(69,142).
edge(69,145).
edge(69,146).
edge(69,148).
edge(69,149).
edge(69,151).
edge(69,152).
edge(69,153).
edge(69,154).
edge(69,156).
edge(69,157).
edge(69,158).
edge(69,159).
edge(69,162).
edge(69,163).
edge(69,165).
edge(69,166).
edge(69,167).
edge(69,168).
edge(69,170).
edge(69,171).
edge(69,173).
edge(69,175).
edge(69,177).
edge(69,178).
edge(69,179).
edge(69,181).
edge(69,182).
edge(69,184).
edge(69,185).
edge(69,186).
edge(69,187).
edge(69,188).
edge(69,190).
edge(69,191).
edge(69,192).
edge(69,195).
edge(69,196).
edge(69,199).
edge(69,202).
edge(69,203).
edge(69,204).
edge(69,205).
edge(69,206).
edge(69,207).
edge(69,208).
edge(69,209).
edge(69,211).
edge(69,212).
edge(69,213).
edge(69,216).
edge(69,217).
edge(69,218).
edge(69,219).
edge(69,220).
edge(69,221).
edge(69,222).
edge(69,225).
edge(69,226).
edge(69,232).
edge(69,233).
edge(69,234).
edge(69,235).
edge(69,236).
edge(69,237).
edge(69,240).
edge(69,241).
edge(69,243).
edge(69,245).
edge(69,248).
edge(69,249).
edge(69,250).
edge(70,73).
edge(70,74).
edge(70,76).
edge(70,78).
edge(70,79).
edge(70,80).
edge(70,81).
edge(70,82).
edge(70,84).
edge(70,86).
edge(70,87).
edge(70,90).
edge(70,91).
edge(70,92).
edge(70,94).
edge(70,95).
edge(70,96).
edge(70,97).
edge(70,98).
edge(70,100).
edge(70,102).
edge(70,103).
edge(70,104).
edge(70,105).
edge(70,106).
edge(70,107).
edge(70,108).
edge(70,109).
edge(70,110).
edge(70,112).
edge(70,113).
edge(70,114).
edge(70,115).
edge(70,117).
edge(70,118).
edge(70,119).
edge(70,120).
edge(70,122).
edge(70,123).
edge(70,124).
edge(70,125).
edge(70,126).
edge(70,127).
edge(70,129).
edge(70,130).
edge(70,131).
edge(70,136).
edge(70,138).
edge(70,139).
edge(70,140).
edge(70,141).
edge(70,144).
edge(70,145).
edge(70,146).
edge(70,147).
edge(70,148).
edge(70,149).
edge(70,151).
edge(70,153).
edge(70,154).
edge(70,156).
edge(70,157).
edge(70,158).
edge(70,159).
edge(70,161).
edge(70,162).
edge(70,163).
edge(70,164).
edge(70,165).
edge(70,167).
edge(70,168).
edge(70,169).
edge(70,170).
edge(70,172).
edge(70,174).
edge(70,175).
edge(70,176).
edge(70,177).
edge(70,178).
edge(70,179).
edge(70,180).
edge(70,183).
edge(70,184).
edge(70,185).
edge(70,186).
edge(70,187).
edge(70,189).
edge(70,190).
edge(70,191).
edge(70,192).
edge(70,193).
edge(70,194).
edge(70,195).
edge(70,196).
edge(70,197).
edge(70,199).
edge(70,201).
edge(70,202).
edge(70,203).
edge(70,204).
edge(70,205).
edge(70,206).
edge(70,207).
edge(70,210).
edge(70,211).
edge(70,215).
edge(70,216).
edge(70,217).
edge(70,218).
edge(70,219).
edge(70,220).
edge(70,221).
edge(70,224).
edge(70,226).
edge(70,228).
edge(70,229).
edge(70,231).
edge(70,232).
edge(70,233).
edge(70,236).
edge(70,237).
edge(70,238).
edge(70,239).
edge(70,240).
edge(70,241).
edge(70,244).
edge(70,245).
edge(70,246).
edge(70,247).
edge(70,248).
edge(70,250).
edge(71,74).
edge(71,76).
edge(71,78).
edge(71,79).
edge(71,80).
edge(71,83).
edge(71,86).
edge(71,87).
edge(71,90).
edge(71,91).
edge(71,92).
edge(71,94).
edge(71,95).
edge(71,96).
edge(71,98).
edge(71,99).
edge(71,104).
edge(71,105).
edge(71,106).
edge(71,107).
edge(71,108).
edge(71,109).
edge(71,113).
edge(71,115).
edge(71,117).
edge(71,119).
edge(71,120).
edge(71,121).
edge(71,125).
edge(71,127).
edge(71,131).
edge(71,132).
edge(71,133).
edge(71,134).
edge(71,135).
edge(71,136).
edge(71,138).
edge(71,140).
edge(71,141).
edge(71,142).
edge(71,144).
edge(71,145).
edge(71,147).
edge(71,148).
edge(71,151).
edge(71,152).
edge(71,156).
edge(71,157).
edge(71,158).
edge(71,161).
edge(71,162).
edge(71,164).
edge(71,166).
edge(71,168).
edge(71,169).
edge(71,172).
edge(71,173).
edge(71,178).
edge(71,179).
edge(71,180).
edge(71,181).
edge(71,182).
edge(71,183).
edge(71,184).
edge(71,185).
edge(71,186).
edge(71,187).
edge(71,190).
edge(71,191).
edge(71,192).
edge(71,193).
edge(71,194).
edge(71,195).
edge(71,196).
edge(71,198).
edge(71,199).
edge(71,200).
edge(71,201).
edge(71,203).
edge(71,204).
edge(71,206).
edge(71,207).
edge(71,208).
edge(71,209).
edge(71,210).
edge(71,212).
edge(71,213).
edge(71,215).
edge(71,216).
edge(71,217).
edge(71,218).
edge(71,223).
edge(71,225).
edge(71,227).
edge(71,229).
edge(71,230).
edge(71,232).
edge(71,233).
edge(71,234).
edge(71,235).
edge(71,236).
edge(71,238).
edge(71,240).
edge(71,242).
edge(71,243).
edge(71,245).
edge(71,246).
edge(71,247).
edge(71,248).
edge(71,249).
edge(71,250).
edge(72,75).
edge(72,76).
edge(72,81).
edge(72,82).
edge(72,84).
edge(72,85).
edge(72,86).
edge(72,87).
edge(72,88).
edge(72,92).
edge(72,93).
edge(72,94).
edge(72,95).
edge(72,97).
edge(72,98).
edge(72,100).
edge(72,102).
edge(72,103).
edge(72,104).
edge(72,105).
edge(72,106).
edge(72,107).
edge(72,108).
edge(72,109).
edge(72,110).
edge(72,111).
edge(72,112).
edge(72,114).
edge(72,116).
edge(72,117).
edge(72,119).
edge(72,120).
edge(72,121).
edge(72,122).
edge(72,123).
edge(72,124).
edge(72,125).
edge(72,126).
edge(72,128).
edge(72,130).
edge(72,133).
edge(72,134).
edge(72,135).
edge(72,138).
edge(72,141).
edge(72,144).
edge(72,145).
edge(72,146).
edge(72,148).
edge(72,149).
edge(72,150).
edge(72,151).
edge(72,153).
edge(72,156).
edge(72,159).
edge(72,161).
edge(72,162).
edge(72,166).
edge(72,167).
edge(72,168).
edge(72,169).
edge(72,172).
edge(72,173).
edge(72,175).
edge(72,178).
edge(72,181).
edge(72,182).
edge(72,183).
edge(72,184).
edge(72,185).
edge(72,187).
edge(72,189).
edge(72,190).
edge(72,191).
edge(72,192).
edge(72,193).
edge(72,196).
edge(72,197).
edge(72,198).
edge(72,199).
edge(72,200).
edge(72,201).
edge(72,202).
edge(72,203).
edge(72,205).
edge(72,207).
edge(72,208).
edge(72,210).
edge(72,217).
edge(72,220).
edge(72,221).
edge(72,222).
edge(72,225).
edge(72,227).
edge(72,228).
edge(72,229).
edge(72,231).
edge(72,234).
edge(72,235).
edge(72,237).
edge(72,239).
edge(72,243).
edge(72,245).
edge(72,248).
edge(72,249).
edge(72,250).
edge(73,74).
edge(73,80).
edge(73,82).
edge(73,83).
edge(73,84).
edge(73,88).
edge(73,89).
edge(73,92).
edge(73,93).
edge(73,96).
edge(73,98).
edge(73,99).
edge(73,101).
edge(73,102).
edge(73,105).
edge(73,106).
edge(73,107).
edge(73,109).
edge(73,110).
edge(73,112).
edge(73,113).
edge(73,114).
edge(73,115).
edge(73,116).
edge(73,117).
edge(73,119).
edge(73,120).
edge(73,121).
edge(73,122).
edge(73,123).
edge(73,127).
edge(73,128).
edge(73,129).
edge(73,130).
edge(73,131).
edge(73,132).
edge(73,133).
edge(73,135).
edge(73,136).
edge(73,137).
edge(73,138).
edge(73,139).
edge(73,140).
edge(73,141).
edge(73,142).
edge(73,143).
edge(73,144).
edge(73,145).
edge(73,149).
edge(73,150).
edge(73,151).
edge(73,152).
edge(73,153).
edge(73,156).
edge(73,157).
edge(73,159).
edge(73,160).
edge(73,162).
edge(73,163).
edge(73,168).
edge(73,170).
edge(73,173).
edge(73,175).
edge(73,176).
edge(73,178).
edge(73,179).
edge(73,180).
edge(73,181).
edge(73,183).
edge(73,185).
edge(73,186).
edge(73,188).
edge(73,189).
edge(73,190).
edge(73,191).
edge(73,192).
edge(73,193).
edge(73,195).
edge(73,196).
edge(73,198).
edge(73,199).
edge(73,200).
edge(73,202).
edge(73,204).
edge(73,205).
edge(73,206).
edge(73,207).
edge(73,209).
edge(73,210).
edge(73,211).
edge(73,213).
edge(73,214).
edge(73,215).
edge(73,217).
edge(73,218).
edge(73,219).
edge(73,226).
edge(73,228).
edge(73,229).
edge(73,231).
edge(73,233).
edge(73,235).
edge(73,240).
edge(73,241).
edge(73,242).
edge(73,243).
edge(73,244).
edge(73,246).
edge(73,247).
edge(73,249).
edge(73,250).
edge(74,75).
edge(74,76).
edge(74,77).
edge(74,78).
edge(74,79).
edge(74,80).
edge(74,81).
edge(74,82).
edge(74,83).
edge(74,84).
edge(74,86).
edge(74,88).
edge(74,89).
edge(74,90).
edge(74,91).
edge(74,92).
edge(74,93).
edge(74,94).
edge(74,95).
edge(74,100).
edge(74,101).
edge(74,102).
edge(74,103).
edge(74,104).
edge(74,105).
edge(74,107).
edge(74,108).
edge(74,109).
edge(74,110).
edge(74,111).
edge(74,112).
edge(74,113).
edge(74,114).
edge(74,117).
edge(74,119).
edge(74,120).
edge(74,121).
edge(74,122).
edge(74,124).
edge(74,125).
edge(74,126).
edge(74,127).
edge(74,128).
edge(74,129).
edge(74,130).
edge(74,131).
edge(74,132).
edge(74,133).
edge(74,134).
edge(74,135).
edge(74,136).
edge(74,137).
edge(74,138).
edge(74,139).
edge(74,140).
edge(74,141).
edge(74,142).
edge(74,144).
edge(74,145).
edge(74,146).
edge(74,147).
edge(74,149).
edge(74,150).
edge(74,151).
edge(74,152).
edge(74,153).
edge(74,154).
edge(74,155).
edge(74,156).
edge(74,157).
edge(74,158).
edge(74,159).
edge(74,160).
edge(74,162).
edge(74,163).
edge(74,164).
edge(74,165).
edge(74,167).
edge(74,168).
edge(74,169).
edge(74,170).
edge(74,172).
edge(74,174).
edge(74,175).
edge(74,176).
edge(74,177).
edge(74,178).
edge(74,179).
edge(74,180).
edge(74,181).
edge(74,183).
edge(74,184).
edge(74,185).
edge(74,190).
edge(74,191).
edge(74,192).
edge(74,193).
edge(74,194).
edge(74,195).
edge(74,197).
edge(74,199).
edge(74,201).
edge(74,202).
edge(74,203).
edge(74,204).
edge(74,205).
edge(74,207).
edge(74,208).
edge(74,209).
edge(74,210).
edge(74,211).
edge(74,212).
edge(74,214).
edge(74,215).
edge(74,216).
edge(74,217).
edge(74,218).
edge(74,219).
edge(74,221).
edge(74,222).
edge(74,223).
edge(74,225).
edge(74,226).
edge(74,228).
edge(74,229).
edge(74,231).
edge(74,232).
edge(74,233).
edge(74,234).
edge(74,235).
edge(74,236).
edge(74,237).
edge(74,239).
edge(74,240).
edge(74,241).
edge(74,242).
edge(74,243).
edge(74,244).
edge(74,245).
edge(74,246).
edge(74,247).
edge(74,249).
edge(74,250).
edge(75,76).
edge(75,77).
edge(75,79).
edge(75,80).
edge(75,82).
edge(75,83).
edge(75,84).
edge(75,85).
edge(75,86).
edge(75,87).
edge(75,89).
edge(75,90).
edge(75,91).
edge(75,92).
edge(75,94).
edge(75,96).
edge(75,98).
edge(75,102).
edge(75,103).
edge(75,105).
edge(75,107).
edge(75,113).
edge(75,114).
edge(75,115).
edge(75,116).
edge(75,117).
edge(75,118).
edge(75,119).
edge(75,120).
edge(75,121).
edge(75,122).
edge(75,125).
edge(75,126).
edge(75,127).
edge(75,128).
edge(75,129).
edge(75,130).
edge(75,131).
edge(75,135).
edge(75,136).
edge(75,137).
edge(75,140).
edge(75,141).
edge(75,143).
edge(75,144).
edge(75,146).
edge(75,149).
edge(75,152).
edge(75,153).
edge(75,154).
edge(75,157).
edge(75,158).
edge(75,159).
edge(75,160).
edge(75,164).
edge(75,169).
edge(75,170).
edge(75,171).
edge(75,172).
edge(75,173).
edge(75,176).
edge(75,177).
edge(75,180).
edge(75,181).
edge(75,182).
edge(75,183).
edge(75,187).
edge(75,188).
edge(75,189).
edge(75,190).
edge(75,191).
edge(75,192).
edge(75,193).
edge(75,194).
edge(75,195).
edge(75,196).
edge(75,198).
edge(75,201).
edge(75,202).
edge(75,203).
edge(75,204).
edge(75,205).
edge(75,206).
edge(75,207).
edge(75,208).
edge(75,209).
edge(75,210).
edge(75,211).
edge(75,213).
edge(75,215).
edge(75,216).
edge(75,218).
edge(75,219).
edge(75,221).
edge(75,223).
edge(75,226).
edge(75,227).
edge(75,228).
edge(75,230).
edge(75,231).
edge(75,232).
edge(75,233).
edge(75,235).
edge(75,236).
edge(75,240).
edge(75,241).
edge(75,243).
edge(75,244).
edge(75,245).
edge(75,247).
edge(75,249).
edge(76,77).
edge(76,79).
edge(76,80).
edge(76,82).
edge(76,84).
edge(76,85).
edge(76,86).
edge(76,87).
edge(76,88).
edge(76,89).
edge(76,90).
edge(76,93).
edge(76,94).
edge(76,95).
edge(76,96).
edge(76,98).
edge(76,100).
edge(76,102).
edge(76,104).
edge(76,105).
edge(76,107).
edge(76,108).
edge(76,109).
edge(76,110).
edge(76,111).
edge(76,112).
edge(76,113).
edge(76,114).
edge(76,116).
edge(76,117).
edge(76,119).
edge(76,120).
edge(76,121).
edge(76,123).
edge(76,124).
edge(76,125).
edge(76,127).
edge(76,129).
edge(76,130).
edge(76,131).
edge(76,132).
edge(76,133).
edge(76,135).
edge(76,136).
edge(76,137).
edge(76,138).
edge(76,139).
edge(76,140).
edge(76,141).
edge(76,142).
edge(76,143).
edge(76,144).
edge(76,145).
edge(76,147).
edge(76,148).
edge(76,149).
edge(76,150).
edge(76,152).
edge(76,153).
edge(76,154).
edge(76,157).
edge(76,158).
edge(76,159).
edge(76,160).
edge(76,161).
edge(76,162).
edge(76,163).
edge(76,166).
edge(76,168).
edge(76,169).
edge(76,170).
edge(76,172).
edge(76,173).
edge(76,174).
edge(76,175).
edge(76,176).
edge(76,177).
edge(76,178).
edge(76,179).
edge(76,180).
edge(76,181).
edge(76,182).
edge(76,183).
edge(76,185).
edge(76,188).
edge(76,189).
edge(76,190).
edge(76,191).
edge(76,192).
edge(76,194).
edge(76,195).
edge(76,196).
edge(76,197).
edge(76,199).
edge(76,200).
edge(76,201).
edge(76,202).
edge(76,203).
edge(76,204).
edge(76,205).
edge(76,206).
edge(76,207).
edge(76,208).
edge(76,209).
edge(76,211).
edge(76,213).
edge(76,214).
edge(76,215).
edge(76,217).
edge(76,218).
edge(76,219).
edge(76,220).
edge(76,221).
edge(76,223).
edge(76,224).
edge(76,225).
edge(76,226).
edge(76,227).
edge(76,228).
edge(76,229).
edge(76,231).
edge(76,232).
edge(76,233).
edge(76,234).
edge(76,235).
edge(76,237).
edge(76,238).
edge(76,239).
edge(76,240).
edge(76,241).
edge(76,242).
edge(76,243).
edge(76,244).
edge(76,246).
edge(76,247).
edge(76,248).
edge(76,249).
edge(76,250).
edge(77,78).
edge(77,79).
edge(77,81).
edge(77,82).
edge(77,83).
edge(77,84).
edge(77,85).
edge(77,87).
edge(77,88).
edge(77,89).
edge(77,90).
edge(77,91).
edge(77,93).
edge(77,94).
edge(77,95).
edge(77,97).
edge(77,98).
edge(77,99).
edge(77,100).
edge(77,101).
edge(77,102).
edge(77,103).
edge(77,104).
edge(77,105).
edge(77,106).
edge(77,107).
edge(77,109).
edge(77,110).
edge(77,113).
edge(77,115).
edge(77,116).
edge(77,117).
edge(77,119).
edge(77,120).
edge(77,121).
edge(77,122).
edge(77,123).
edge(77,124).
edge(77,127).
edge(77,128).
edge(77,129).
edge(77,130).
edge(77,131).
edge(77,132).
edge(77,133).
edge(77,134).
edge(77,137).
edge(77,138).
edge(77,139).
edge(77,140).
edge(77,142).
edge(77,143).
edge(77,144).
edge(77,145).
edge(77,146).
edge(77,148).
edge(77,149).
edge(77,150).
edge(77,151).
edge(77,152).
edge(77,154).
edge(77,155).
edge(77,157).
edge(77,159).
edge(77,160).
edge(77,161).
edge(77,162).
edge(77,163).
edge(77,164).
edge(77,165).
edge(77,167).
edge(77,168).
edge(77,169).
edge(77,172).
edge(77,173).
edge(77,175).
edge(77,176).
edge(77,177).
edge(77,178).
edge(77,179).
edge(77,180).
edge(77,181).
edge(77,182).
edge(77,183).
edge(77,184).
edge(77,185).
edge(77,186).
edge(77,187).
edge(77,188).
edge(77,189).
edge(77,190).
edge(77,191).
edge(77,192).
edge(77,194).
edge(77,195).
edge(77,198).
edge(77,199).
edge(77,202).
edge(77,203).
edge(77,204).
edge(77,206).
edge(77,208).
edge(77,210).
edge(77,211).
edge(77,212).
edge(77,213).
edge(77,215).
edge(77,219).
edge(77,220).
edge(77,221).
edge(77,222).
edge(77,224).
edge(77,226).
edge(77,228).
edge(77,229).
edge(77,231).
edge(77,232).
edge(77,233).
edge(77,234).
edge(77,235).
edge(77,237).
edge(77,238).
edge(77,241).
edge(77,242).
edge(77,243).
edge(77,244).
edge(77,245).
edge(77,246).
edge(77,247).
edge(77,249).
edge(77,250).
edge(78,79).
edge(78,81).
edge(78,84).
edge(78,85).
edge(78,88).
edge(78,90).
edge(78,91).
edge(78,92).
edge(78,95).
edge(78,96).
edge(78,99).
edge(78,101).
edge(78,102).
edge(78,103).
edge(78,104).
edge(78,105).
edge(78,106).
edge(78,107).
edge(78,109).
edge(78,110).
edge(78,114).
edge(78,115).
edge(78,116).
edge(78,119).
edge(78,120).
edge(78,121).
edge(78,122).
edge(78,123).
edge(78,124).
edge(78,125).
edge(78,126).
edge(78,127).
edge(78,128).
edge(78,130).
edge(78,131).
edge(78,132).
edge(78,133).
edge(78,134).
edge(78,136).
edge(78,137).
edge(78,138).
edge(78,139).
edge(78,140).
edge(78,141).
edge(78,142).
edge(78,143).
edge(78,145).
edge(78,146).
edge(78,147).
edge(78,148).
edge(78,149).
edge(78,150).
edge(78,151).
edge(78,153).
edge(78,154).
edge(78,155).
edge(78,157).
edge(78,159).
edge(78,160).
edge(78,161).
edge(78,162).
edge(78,164).
edge(78,165).
edge(78,167).
edge(78,168).
edge(78,170).
edge(78,171).
edge(78,173).
edge(78,175).
edge(78,176).
edge(78,179).
edge(78,181).
edge(78,182).
edge(78,183).
edge(78,184).
edge(78,185).
edge(78,188).
edge(78,189).
edge(78,190).
edge(78,191).
edge(78,192).
edge(78,195).
edge(78,196).
edge(78,197).
edge(78,198).
edge(78,199).
edge(78,200).
edge(78,203).
edge(78,204).
edge(78,205).
edge(78,206).
edge(78,210).
edge(78,212).
edge(78,214).
edge(78,215).
edge(78,220).
edge(78,221).
edge(78,224).
edge(78,227).
edge(78,228).
edge(78,229).
edge(78,230).
edge(78,231).
edge(78,233).
edge(78,235).
edge(78,236).
edge(78,237).
edge(78,238).
edge(78,240).
edge(78,241).
edge(78,242).
edge(78,243).
edge(78,244).
edge(78,245).
edge(78,246).
edge(78,247).
edge(78,248).
edge(78,249).
edge(78,250).
edge(79,80).
edge(79,81).
edge(79,83).
edge(79,85).
edge(79,87).
edge(79,88).
edge(79,89).
edge(79,90).
edge(79,91).
edge(79,92).
edge(79,95).
edge(79,96).
edge(79,97).
edge(79,98).
edge(79,99).
edge(79,101).
edge(79,103).
edge(79,104).
edge(79,105).
edge(79,106).
edge(79,108).
edge(79,109).
edge(79,111).
edge(79,116).
edge(79,118).
edge(79,121).
edge(79,123).
edge(79,125).
edge(79,126).
edge(79,128).
edge(79,129).
edge(79,130).
edge(79,132).
edge(79,133).
edge(79,134).
edge(79,135).
edge(79,137).
edge(79,138).
edge(79,139).
edge(79,140).
edge(79,142).
edge(79,143).
edge(79,144).
edge(79,145).
edge(79,146).
edge(79,148).
edge(79,149).
edge(79,151).
edge(79,152).
edge(79,154).
edge(79,155).
edge(79,157).
edge(79,158).
edge(79,159).
edge(79,160).
edge(79,161).
edge(79,163).
edge(79,164).
edge(79,165).
edge(79,167).
edge(79,168).
edge(79,173).
edge(79,174).
edge(79,175).
edge(79,176).
edge(79,177).
edge(79,178).
edge(79,179).
edge(79,182).
edge(79,183).
edge(79,184).
edge(79,185).
edge(79,186).
edge(79,187).
edge(79,188).
edge(79,189).
edge(79,190).
edge(79,191).
edge(79,195).
edge(79,196).
edge(79,199).
edge(79,200).
edge(79,201).
edge(79,202).
edge(79,203).
edge(79,204).
edge(79,206).
edge(79,207).
edge(79,210).
edge(79,211).
edge(79,212).
edge(79,216).
edge(79,217).
edge(79,218).
edge(79,219).
edge(79,222).
edge(79,224).
edge(79,225).
edge(79,226).
edge(79,227).
edge(79,229).
edge(79,230).
edge(79,231).
edge(79,233).
edge(79,234).
edge(79,236).
edge(79,237).
edge(79,238).
edge(79,243).
edge(79,244).
edge(79,245).
edge(79,249).
edge(79,250).
edge(80,81).
edge(80,82).
edge(80,83).
edge(80,84).
edge(80,86).
edge(80,87).
edge(80,88).
edge(80,90).
edge(80,91).
edge(80,93).
edge(80,94).
edge(80,95).
edge(80,97).
edge(80,98).
edge(80,100).
edge(80,101).
edge(80,102).
edge(80,104).
edge(80,107).
edge(80,109).
edge(80,111).
edge(80,112).
edge(80,114).
edge(80,117).
edge(80,118).
edge(80,119).
edge(80,120).
edge(80,122).
edge(80,124).
edge(80,125).
edge(80,126).
edge(80,127).
edge(80,128).
edge(80,129).
edge(80,130).
edge(80,131).
edge(80,133).
edge(80,135).
edge(80,137).
edge(80,141).
edge(80,144).
edge(80,145).
edge(80,146).
edge(80,147).
edge(80,148).
edge(80,149).
edge(80,150).
edge(80,156).
edge(80,157).
edge(80,158).
edge(80,159).
edge(80,160).
edge(80,161).
edge(80,162).
edge(80,163).
edge(80,165).
edge(80,166).
edge(80,167).
edge(80,168).
edge(80,169).
edge(80,170).
edge(80,171).
edge(80,172).
edge(80,173).
edge(80,174).
edge(80,175).
edge(80,176).
edge(80,177).
edge(80,178).
edge(80,179).
edge(80,181).
edge(80,182).
edge(80,184).
edge(80,185).
edge(80,188).
edge(80,189).
edge(80,190).
edge(80,191).
edge(80,192).
edge(80,193).
edge(80,194).
edge(80,195).
edge(80,197).
edge(80,199).
edge(80,201).
edge(80,202).
edge(80,203).
edge(80,204).
edge(80,205).
edge(80,206).
edge(80,207).
edge(80,208).
edge(80,209).
edge(80,211).
edge(80,212).
edge(80,213).
edge(80,214).
edge(80,215).
edge(80,216).
edge(80,217).
edge(80,218).
edge(80,219).
edge(80,221).
edge(80,222).
edge(80,225).
edge(80,226).
edge(80,227).
edge(80,228).
edge(80,229).
edge(80,231).
edge(80,232).
edge(80,233).
edge(80,234).
edge(80,235).
edge(80,237).
edge(80,239).
edge(80,240).
edge(80,241).
edge(80,242).
edge(80,243).
edge(80,244).
edge(80,245).
edge(80,246).
edge(80,248).
edge(80,249).
edge(80,250).
edge(81,83).
edge(81,84).
edge(81,85).
edge(81,86).
edge(81,87).
edge(81,90).
edge(81,91).
edge(81,93).
edge(81,94).
edge(81,95).
edge(81,96).
edge(81,97).
edge(81,99).
edge(81,100).
edge(81,101).
edge(81,102).
edge(81,103).
edge(81,104).
edge(81,106).
edge(81,111).
edge(81,112).
edge(81,113).
edge(81,114).
edge(81,117).
edge(81,119).
edge(81,120).
edge(81,122).
edge(81,124).
edge(81,125).
edge(81,126).
edge(81,128).
edge(81,129).
edge(81,130).
edge(81,135).
edge(81,136).
edge(81,137).
edge(81,138).
edge(81,139).
edge(81,140).
edge(81,143).
edge(81,144).
edge(81,146).
edge(81,147).
edge(81,148).
edge(81,151).
edge(81,152).
edge(81,153).
edge(81,155).
edge(81,156).
edge(81,159).
edge(81,160).
edge(81,162).
edge(81,163).
edge(81,164).
edge(81,165).
edge(81,167).
edge(81,168).
edge(81,170).
edge(81,171).
edge(81,172).
edge(81,173).
edge(81,174).
edge(81,175).
edge(81,176).
edge(81,177).
edge(81,179).
edge(81,180).
edge(81,181).
edge(81,182).
edge(81,183).
edge(81,184).
edge(81,185).
edge(81,186).
edge(81,188).
edge(81,189).
edge(81,190).
edge(81,191).
edge(81,192).
edge(81,194).
edge(81,197).
edge(81,198).
edge(81,199).
edge(81,202).
edge(81,203).
edge(81,206).
edge(81,207).
edge(81,209).
edge(81,210).
edge(81,211).
edge(81,212).
edge(81,214).
edge(81,215).
edge(81,216).
edge(81,217).
edge(81,218).
edge(81,224).
edge(81,227).
edge(81,228).
edge(81,229).
edge(81,230).
edge(81,231).
edge(81,234).
edge(81,236).
edge(81,237).
edge(81,238).
edge(81,239).
edge(81,240).
edge(81,241).
edge(81,243).
edge(81,244).
edge(81,245).
edge(81,246).
edge(81,248).
edge(81,249).
edge(81,250).
edge(82,84).
edge(82,87).
edge(82,88).
edge(82,92).
edge(82,93).
edge(82,94).
edge(82,95).
edge(82,98).
edge(82,99).
edge(82,101).
edge(82,105).
edge(82,106).
edge(82,107).
edge(82,110).
edge(82,111).
edge(82,112).
edge(82,113).
edge(82,115).
edge(82,116).
edge(82,117).
edge(82,118).
edge(82,119).
edge(82,120).
edge(82,121).
edge(82,123).
edge(82,124).
edge(82,126).
edge(82,127).
edge(82,128).
edge(82,129).
edge(82,130).
edge(82,131).
edge(82,132).
edge(82,134).
edge(82,136).
edge(82,139).
edge(82,140).
edge(82,144).
edge(82,145).
edge(82,149).
edge(82,150).
edge(82,154).
edge(82,156).
edge(82,157).
edge(82,159).
edge(82,160).
edge(82,161).
edge(82,164).
edge(82,165).
edge(82,166).
edge(82,167).
edge(82,172).
edge(82,177).
edge(82,178).
edge(82,179).
edge(82,182).
edge(82,183).
edge(82,184).
edge(82,186).
edge(82,187).
edge(82,189).
edge(82,193).
edge(82,195).
edge(82,196).
edge(82,197).
edge(82,199).
edge(82,200).
edge(82,201).
edge(82,205).
edge(82,206).
edge(82,208).
edge(82,209).
edge(82,210).
edge(82,214).
edge(82,215).
edge(82,216).
edge(82,218).
edge(82,219).
edge(82,220).
edge(82,222).
edge(82,225).
edge(82,228).
edge(82,230).
edge(82,233).
edge(82,234).
edge(82,236).
edge(82,237).
edge(82,238).
edge(82,239).
edge(82,242).
edge(82,243).
edge(82,244).
edge(82,245).
edge(82,246).
edge(82,248).
edge(82,249).
edge(82,250).
edge(83,85).
edge(83,88).
edge(83,90).
edge(83,91).
edge(83,92).
edge(83,93).
edge(83,98).
edge(83,100).
edge(83,102).
edge(83,103).
edge(83,106).
edge(83,109).
edge(83,110).
edge(83,111).
edge(83,113).
edge(83,115).
edge(83,116).
edge(83,117).
edge(83,119).
edge(83,123).
edge(83,124).
edge(83,126).
edge(83,127).
edge(83,128).
edge(83,133).
edge(83,134).
edge(83,135).
edge(83,137).
edge(83,138).
edge(83,140).
edge(83,142).
edge(83,144).
edge(83,147).
edge(83,148).
edge(83,149).
edge(83,151).
edge(83,152).
edge(83,154).
edge(83,158).
edge(83,163).
edge(83,164).
edge(83,165).
edge(83,167).
edge(83,172).
edge(83,173).
edge(83,174).
edge(83,175).
edge(83,176).
edge(83,178).
edge(83,179).
edge(83,180).
edge(83,181).
edge(83,185).
edge(83,186).
edge(83,188).
edge(83,190).
edge(83,192).
edge(83,193).
edge(83,195).
edge(83,196).
edge(83,197).
edge(83,200).
edge(83,201).
edge(83,202).
edge(83,204).
edge(83,205).
edge(83,206).
edge(83,207).
edge(83,208).
edge(83,210).
edge(83,211).
edge(83,214).
edge(83,215).
edge(83,218).
edge(83,219).
edge(83,220).
edge(83,221).
edge(83,224).
edge(83,227).
edge(83,228).
edge(83,229).
edge(83,231).
edge(83,234).
edge(83,235).
edge(83,236).
edge(83,237).
edge(83,242).
edge(83,245).
edge(83,246).
edge(83,247).
edge(83,249).
edge(84,86).
edge(84,87).
edge(84,89).
edge(84,90).
edge(84,91).
edge(84,93).
edge(84,94).
edge(84,95).
edge(84,97).
edge(84,98).
edge(84,99).
edge(84,100).
edge(84,101).
edge(84,104).
edge(84,105).
edge(84,106).
edge(84,107).
edge(84,109).
edge(84,110).
edge(84,112).
edge(84,114).
edge(84,115).
edge(84,116).
edge(84,117).
edge(84,119).
edge(84,121).
edge(84,122).
edge(84,123).
edge(84,124).
edge(84,127).
edge(84,128).
edge(84,129).
edge(84,130).
edge(84,131).
edge(84,133).
edge(84,134).
edge(84,135).
edge(84,136).
edge(84,137).
edge(84,141).
edge(84,142).
edge(84,143).
edge(84,144).
edge(84,146).
edge(84,147).
edge(84,148).
edge(84,150).
edge(84,151).
edge(84,153).
edge(84,157).
edge(84,158).
edge(84,159).
edge(84,160).
edge(84,161).
edge(84,162).
edge(84,163).
edge(84,165).
edge(84,167).
edge(84,168).
edge(84,169).
edge(84,173).
edge(84,175).
edge(84,176).
edge(84,177).
edge(84,178).
edge(84,179).
edge(84,180).
edge(84,181).
edge(84,182).
edge(84,183).
edge(84,184).
edge(84,185).
edge(84,186).
edge(84,187).
edge(84,188).
edge(84,190).
edge(84,191).
edge(84,192).
edge(84,193).
edge(84,194).
edge(84,195).
edge(84,197).
edge(84,198).
edge(84,199).
edge(84,202).
edge(84,203).
edge(84,204).
edge(84,205).
edge(84,206).
edge(84,207).
edge(84,208).
edge(84,211).
edge(84,215).
edge(84,216).
edge(84,217).
edge(84,219).
edge(84,220).
edge(84,222).
edge(84,224).
edge(84,225).
edge(84,226).
edge(84,227).
edge(84,229).
edge(84,231).
edge(84,232).
edge(84,233).
edge(84,234).
edge(84,235).
edge(84,238).
edge(84,239).
edge(84,241).
edge(84,242).
edge(84,243).
edge(84,244).
edge(84,245).
edge(84,246).
edge(84,247).
edge(84,248).
edge(84,249).
edge(84,250).
edge(85,86).
edge(85,87).
edge(85,88).
edge(85,89).
edge(85,91).
edge(85,94).
edge(85,95).
edge(85,98).
edge(85,102).
edge(85,103).
edge(85,104).
edge(85,105).
edge(85,108).
edge(85,109).
edge(85,110).
edge(85,111).
edge(85,112).
edge(85,113).
edge(85,117).
edge(85,118).
edge(85,119).
edge(85,121).
edge(85,124).
edge(85,125).
edge(85,127).
edge(85,128).
edge(85,129).
edge(85,131).
edge(85,132).
edge(85,142).
edge(85,143).
edge(85,146).
edge(85,147).
edge(85,150).
edge(85,151).
edge(85,153).
edge(85,154).
edge(85,155).
edge(85,158).
edge(85,159).
edge(85,160).
edge(85,162).
edge(85,163).
edge(85,164).
edge(85,165).
edge(85,166).
edge(85,167).
edge(85,170).
edge(85,171).
edge(85,175).
edge(85,176).
edge(85,177).
edge(85,180).
edge(85,181).
edge(85,182).
edge(85,183).
edge(85,185).
edge(85,186).
edge(85,187).
edge(85,188).
edge(85,190).
edge(85,191).
edge(85,192).
edge(85,196).
edge(85,197).
edge(85,198).
edge(85,199).
edge(85,201).
edge(85,202).
edge(85,208).
edge(85,211).
edge(85,213).
edge(85,215).
edge(85,216).
edge(85,217).
edge(85,218).
edge(85,219).
edge(85,222).
edge(85,223).
edge(85,224).
edge(85,226).
edge(85,227).
edge(85,229).
edge(85,230).
edge(85,234).
edge(85,235).
edge(85,236).
edge(85,237).
edge(85,238).
edge(85,239).
edge(85,240).
edge(85,242).
edge(85,246).
edge(85,248).
edge(85,249).
edge(85,250).
edge(86,88).
edge(86,91).
edge(86,92).
edge(86,93).
edge(86,94).
edge(86,95).
edge(86,96).
edge(86,97).
edge(86,99).
edge(86,102).
edge(86,105).
edge(86,106).
edge(86,107).
edge(86,108).
edge(86,109).
edge(86,110).
edge(86,111).
edge(86,113).
edge(86,114).
edge(86,116).
edge(86,117).
edge(86,118).
edge(86,120).
edge(86,121).
edge(86,122).
edge(86,123).
edge(86,124).
edge(86,125).
edge(86,126).
edge(86,128).
edge(86,129).
edge(86,130).
edge(86,131).
edge(86,133).
edge(86,134).
edge(86,135).
edge(86,136).
edge(86,138).
edge(86,139).
edge(86,140).
edge(86,141).
edge(86,142).
edge(86,144).
edge(86,145).
edge(86,146).
edge(86,148).
edge(86,149).
edge(86,151).
edge(86,152).
edge(86,153).
edge(86,155).
edge(86,156).
edge(86,157).
edge(86,158).
edge(86,162).
edge(86,166).
edge(86,168).
edge(86,172).
edge(86,173).
edge(86,174).
edge(86,175).
edge(86,176).
edge(86,178).
edge(86,179).
edge(86,180).
edge(86,183).
edge(86,184).
edge(86,185).
edge(86,186).
edge(86,187).
edge(86,189).
edge(86,190).
edge(86,191).
edge(86,192).
edge(86,193).
edge(86,195).
edge(86,196).
edge(86,199).
edge(86,200).
edge(86,201).
edge(86,202).
edge(86,203).
edge(86,204).
edge(86,205).
edge(86,206).
edge(86,207).
edge(86,213).
edge(86,214).
edge(86,216).
edge(86,218).
edge(86,219).
edge(86,220).
edge(86,221).
edge(86,222).
edge(86,223).
edge(86,225).
edge(86,226).
edge(86,227).
edge(86,228).
edge(86,229).
edge(86,230).
edge(86,231).
edge(86,232).
edge(86,234).
edge(86,238).
edge(86,240).
edge(86,242).
edge(86,244).
edge(86,247).
edge(86,248).
edge(86,249).
edge(87,88).
edge(87,89).
edge(87,90).
edge(87,92).
edge(87,93).
edge(87,94).
edge(87,96).
edge(87,97).
edge(87,100).
edge(87,109).
edge(87,112).
edge(87,113).
edge(87,114).
edge(87,115).
edge(87,116).
edge(87,117).
edge(87,118).
edge(87,122).
edge(87,125).
edge(87,126).
edge(87,127).
edge(87,128).
edge(87,129).
edge(87,130).
edge(87,131).
edge(87,132).
edge(87,133).
edge(87,134).
edge(87,135).
edge(87,138).
edge(87,139).
edge(87,140).
edge(87,141).
edge(87,142).
edge(87,143).
edge(87,144).
edge(87,145).
edge(87,146).
edge(87,147).
edge(87,148).
edge(87,150).
edge(87,151).
edge(87,152).
edge(87,153).
edge(87,154).
edge(87,156).
edge(87,157).
edge(87,159).
edge(87,166).
edge(87,168).
edge(87,169).
edge(87,171).
edge(87,172).
edge(87,175).
edge(87,177).
edge(87,178).
edge(87,179).
edge(87,180).
edge(87,182).
edge(87,183).
edge(87,184).
edge(87,187).
edge(87,188).
edge(87,189).
edge(87,191).
edge(87,192).
edge(87,193).
edge(87,194).
edge(87,195).
edge(87,199).
edge(87,201).
edge(87,202).
edge(87,203).
edge(87,204).
edge(87,206).
edge(87,209).
edge(87,211).
edge(87,212).
edge(87,214).
edge(87,215).
edge(87,216).
edge(87,218).
edge(87,222).
edge(87,223).
edge(87,224).
edge(87,226).
edge(87,228).
edge(87,230).
edge(87,233).
edge(87,235).
edge(87,236).
edge(87,237).
edge(87,238).
edge(87,239).
edge(87,240).
edge(87,241).
edge(87,242).
edge(87,243).
edge(87,244).
edge(87,245).
edge(87,246).
edge(87,250).
edge(88,93).
edge(88,94).
edge(88,95).
edge(88,96).
edge(88,97).
edge(88,98).
edge(88,99).
edge(88,100).
edge(88,102).
edge(88,104).
edge(88,107).
edge(88,109).
edge(88,110).
edge(88,111).
edge(88,113).
edge(88,114).
edge(88,118).
edge(88,119).
edge(88,121).
edge(88,123).
edge(88,125).
edge(88,127).
edge(88,128).
edge(88,129).
edge(88,132).
edge(88,133).
edge(88,134).
edge(88,136).
edge(88,137).
edge(88,138).
edge(88,139).
edge(88,141).
edge(88,142).
edge(88,144).
edge(88,145).
edge(88,146).
edge(88,148).
edge(88,149).
edge(88,150).
edge(88,151).
edge(88,152).
edge(88,153).
edge(88,155).
edge(88,156).
edge(88,158).
edge(88,159).
edge(88,160).
edge(88,162).
edge(88,163).
edge(88,166).
edge(88,167).
edge(88,168).
edge(88,169).
edge(88,170).
edge(88,172).
edge(88,174).
edge(88,175).
edge(88,177).
edge(88,178).
edge(88,182).
edge(88,185).
edge(88,186).
edge(88,188).
edge(88,189).
edge(88,190).
edge(88,191).
edge(88,192).
edge(88,194).
edge(88,197).
edge(88,200).
edge(88,201).
edge(88,202).
edge(88,204).
edge(88,206).
edge(88,207).
edge(88,208).
edge(88,209).
edge(88,211).
edge(88,212).
edge(88,213).
edge(88,215).
edge(88,217).
edge(88,219).
edge(88,220).
edge(88,221).
edge(88,222).
edge(88,223).
edge(88,225).
edge(88,228).
edge(88,229).
edge(88,230).
edge(88,231).
edge(88,232).
edge(88,233).
edge(88,234).
edge(88,235).
edge(88,236).
edge(88,237).
edge(88,238).
edge(88,241).
edge(88,242).
edge(88,243).
edge(88,244).
edge(88,245).
edge(88,247).
edge(89,90).
edge(89,93).
edge(89,94).
edge(89,95).
edge(89,98).
edge(89,99).
edge(89,101).
edge(89,102).
edge(89,104).
edge(89,106).
edge(89,109).
edge(89,110).
edge(89,111).
edge(89,113).
edge(89,116).
edge(89,118).
edge(89,119).
edge(89,120).
edge(89,121).
edge(89,123).
edge(89,124).
edge(89,125).
edge(89,126).
edge(89,127).
edge(89,128).
edge(89,129).
edge(89,130).
edge(89,131).
edge(89,133).
edge(89,134).
edge(89,135).
edge(89,139).
edge(89,140).
edge(89,141).
edge(89,142).
edge(89,147).
edge(89,150).
edge(89,151).
edge(89,152).
edge(89,153).
edge(89,154).
edge(89,155).
edge(89,156).
edge(89,158).
edge(89,159).
edge(89,160).
edge(89,161).
edge(89,162).
edge(89,164).
edge(89,166).
edge(89,167).
edge(89,168).
edge(89,169).
edge(89,170).
edge(89,171).
edge(89,172).
edge(89,174).
edge(89,176).
edge(89,177).
edge(89,179).
edge(89,186).
edge(89,187).
edge(89,188).
edge(89,190).
edge(89,191).
edge(89,192).
edge(89,196).
edge(89,197).
edge(89,202).
edge(89,203).
edge(89,205).
edge(89,207).
edge(89,208).
edge(89,209).
edge(89,210).
edge(89,211).
edge(89,213).
edge(89,214).
edge(89,216).
edge(89,217).
edge(89,219).
edge(89,221).
edge(89,223).
edge(89,225).
edge(89,226).
edge(89,227).
edge(89,228).
edge(89,229).
edge(89,230).
edge(89,231).
edge(89,232).
edge(89,233).
edge(89,234).
edge(89,236).
edge(89,239).
edge(89,241).
edge(89,242).
edge(89,243).
edge(89,244).
edge(89,246).
edge(89,247).
edge(89,250).
edge(90,91).
edge(90,92).
edge(90,94).
edge(90,95).
edge(90,97).
edge(90,98).
edge(90,99).
edge(90,100).
edge(90,101).
edge(90,103).
edge(90,104).
edge(90,105).
edge(90,106).
edge(90,107).
edge(90,108).
edge(90,109).
edge(90,112).
edge(90,115).
edge(90,116).
edge(90,117).
edge(90,118).
edge(90,119).
edge(90,120).
edge(90,121).
edge(90,123).
edge(90,124).
edge(90,126).
edge(90,127).
edge(90,128).
edge(90,129).
edge(90,130).
edge(90,131).
edge(90,132).
edge(90,133).
edge(90,134).
edge(90,135).
edge(90,139).
edge(90,141).
edge(90,142).
edge(90,143).
edge(90,144).
edge(90,145).
edge(90,147).
edge(90,148).
edge(90,149).
edge(90,150).
edge(90,151).
edge(90,153).
edge(90,154).
edge(90,157).
edge(90,158).
edge(90,159).
edge(90,162).
edge(90,163).
edge(90,164).
edge(90,165).
edge(90,166).
edge(90,168).
edge(90,169).
edge(90,170).
edge(90,171).
edge(90,172).
edge(90,174).
edge(90,175).
edge(90,177).
edge(90,178).
edge(90,180).
edge(90,181).
edge(90,182).
edge(90,184).
edge(90,185).
edge(90,186).
edge(90,187).
edge(90,188).
edge(90,192).
edge(90,193).
edge(90,194).
edge(90,195).
edge(90,196).
edge(90,197).
edge(90,199).
edge(90,202).
edge(90,203).
edge(90,204).
edge(90,205).
edge(90,206).
edge(90,207).
edge(90,208).
edge(90,209).
edge(90,210).
edge(90,211).
edge(90,215).
edge(90,216).
edge(90,217).
edge(90,218).
edge(90,219).
edge(90,220).
edge(90,221).
edge(90,222).
edge(90,223).
edge(90,224).
edge(90,225).
edge(90,226).
edge(90,227).
edge(90,229).
edge(90,230).
edge(90,231).
edge(90,232).
edge(90,233).
edge(90,234).
edge(90,235).
edge(90,237).
edge(90,238).
edge(90,239).
edge(90,240).
edge(90,241).
edge(90,244).
edge(90,245).
edge(90,246).
edge(91,93).
edge(91,94).
edge(91,95).
edge(91,96).
edge(91,97).
edge(91,99).
edge(91,100).
edge(91,103).
edge(91,104).
edge(91,105).
edge(91,109).
edge(91,111).
edge(91,112).
edge(91,114).
edge(91,118).
edge(91,119).
edge(91,120).
edge(91,121).
edge(91,123).
edge(91,125).
edge(91,126).
edge(91,127).
edge(91,128).
edge(91,129).
edge(91,130).
edge(91,131).
edge(91,132).
edge(91,133).
edge(91,134).
edge(91,135).
edge(91,137).
edge(91,138).
edge(91,139).
edge(91,140).
edge(91,141).
edge(91,144).
edge(91,145).
edge(91,146).
edge(91,148).
edge(91,149).
edge(91,150).
edge(91,151).
edge(91,152).
edge(91,153).
edge(91,156).
edge(91,157).
edge(91,159).
edge(91,160).
edge(91,161).
edge(91,162).
edge(91,164).
edge(91,165).
edge(91,166).
edge(91,167).
edge(91,168).
edge(91,169).
edge(91,171).
edge(91,173).
edge(91,174).
edge(91,175).
edge(91,176).
edge(91,177).
edge(91,179).
edge(91,180).
edge(91,181).
edge(91,182).
edge(91,184).
edge(91,185).
edge(91,186).
edge(91,187).
edge(91,188).
edge(91,189).
edge(91,191).
edge(91,192).
edge(91,193).
edge(91,194).
edge(91,196).
edge(91,197).
edge(91,198).
edge(91,199).
edge(91,200).
edge(91,201).
edge(91,202).
edge(91,203).
edge(91,204).
edge(91,206).
edge(91,207).
edge(91,208).
edge(91,209).
edge(91,210).
edge(91,211).
edge(91,212).
edge(91,213).
edge(91,214).
edge(91,216).
edge(91,217).
edge(91,219).
edge(91,221).
edge(91,222).
edge(91,223).
edge(91,224).
edge(91,225).
edge(91,226).
edge(91,227).
edge(91,228).
edge(91,229).
edge(91,231).
edge(91,233).
edge(91,234).
edge(91,236).
edge(91,237).
edge(91,238).
edge(91,239).
edge(91,240).
edge(91,242).
edge(91,244).
edge(91,245).
edge(91,246).
edge(91,249).
edge(92,94).
edge(92,96).
edge(92,99).
edge(92,100).
edge(92,105).
edge(92,108).
edge(92,109).
edge(92,110).
edge(92,111).
edge(92,112).
edge(92,114).
edge(92,115).
edge(92,116).
edge(92,117).
edge(92,119).
edge(92,120).
edge(92,121).
edge(92,122).
edge(92,125).
edge(92,126).
edge(92,127).
edge(92,129).
edge(92,131).
edge(92,132).
edge(92,137).
edge(92,138).
edge(92,140).
edge(92,142).
edge(92,143).
edge(92,145).
edge(92,148).
edge(92,149).
edge(92,152).
edge(92,153).
edge(92,154).
edge(92,155).
edge(92,156).
edge(92,159).
edge(92,164).
edge(92,166).
edge(92,168).
edge(92,169).
edge(92,170).
edge(92,171).
edge(92,172).
edge(92,173).
edge(92,176).
edge(92,178).
edge(92,182).
edge(92,183).
edge(92,185).
edge(92,187).
edge(92,189).
edge(92,190).
edge(92,192).
edge(92,194).
edge(92,195).
edge(92,196).
edge(92,198).
edge(92,200).
edge(92,201).
edge(92,203).
edge(92,206).
edge(92,209).
edge(92,210).
edge(92,211).
edge(92,212).
edge(92,213).
edge(92,214).
edge(92,215).
edge(92,216).
edge(92,217).
edge(92,220).
edge(92,221).
edge(92,226).
edge(92,227).
edge(92,228).
edge(92,229).
edge(92,230).
edge(92,231).
edge(92,232).
edge(92,234).
edge(92,235).
edge(92,236).
edge(92,237).
edge(92,238).
edge(92,241).
edge(92,243).
edge(92,244).
edge(92,248).
edge(92,249).
edge(92,250).
edge(93,94).
edge(93,95).
edge(93,96).
edge(93,97).
edge(93,98).
edge(93,99).
edge(93,101).
edge(93,103).
edge(93,104).
edge(93,105).
edge(93,109).
edge(93,110).
edge(93,113).
edge(93,114).
edge(93,116).
edge(93,117).
edge(93,118).
edge(93,119).
edge(93,120).
edge(93,121).
edge(93,124).
edge(93,126).
edge(93,127).
edge(93,129).
edge(93,130).
edge(93,131).
edge(93,132).
edge(93,135).
edge(93,138).
edge(93,139).
edge(93,140).
edge(93,141).
edge(93,142).
edge(93,143).
edge(93,144).
edge(93,146).
edge(93,147).
edge(93,150).
edge(93,152).
edge(93,155).
edge(93,156).
edge(93,157).
edge(93,158).
edge(93,159).
edge(93,160).
edge(93,161).
edge(93,163).
edge(93,164).
edge(93,165).
edge(93,166).
edge(93,169).
edge(93,171).
edge(93,173).
edge(93,174).
edge(93,175).
edge(93,176).
edge(93,178).
edge(93,179).
edge(93,181).
edge(93,182).
edge(93,185).
edge(93,186).
edge(93,188).
edge(93,191).
edge(93,193).
edge(93,194).
edge(93,195).
edge(93,196).
edge(93,197).
edge(93,198).
edge(93,199).
edge(93,204).
edge(93,205).
edge(93,207).
edge(93,208).
edge(93,211).
edge(93,212).
edge(93,214).
edge(93,215).
edge(93,216).
edge(93,219).
edge(93,225).
edge(93,227).
edge(93,229).
edge(93,231).
edge(93,232).
edge(93,233).
edge(93,235).
edge(93,236).
edge(93,237).
edge(93,240).
edge(93,241).
edge(93,242).
edge(93,243).
edge(93,245).
edge(93,246).
edge(93,247).
edge(93,249).
edge(94,95).
edge(94,96).
edge(94,97).
edge(94,98).
edge(94,100).
edge(94,101).
edge(94,102).
edge(94,104).
edge(94,105).
edge(94,106).
edge(94,107).
edge(94,109).
edge(94,110).
edge(94,111).
edge(94,112).
edge(94,113).
edge(94,114).
edge(94,115).
edge(94,116).
edge(94,117).
edge(94,119).
edge(94,120).
edge(94,122).
edge(94,123).
edge(94,124).
edge(94,126).
edge(94,127).
edge(94,129).
edge(94,130).
edge(94,131).
edge(94,132).
edge(94,134).
edge(94,135).
edge(94,136).
edge(94,137).
edge(94,138).
edge(94,139).
edge(94,141).
edge(94,142).
edge(94,143).
edge(94,144).
edge(94,146).
edge(94,147).
edge(94,149).
edge(94,150).
edge(94,151).
edge(94,156).
edge(94,157).
edge(94,159).
edge(94,160).
edge(94,161).
edge(94,162).
edge(94,163).
edge(94,165).
edge(94,166).
edge(94,167).
edge(94,168).
edge(94,169).
edge(94,170).
edge(94,172).
edge(94,173).
edge(94,174).
edge(94,175).
edge(94,176).
edge(94,177).
edge(94,178).
edge(94,179).
edge(94,181).
edge(94,182).
edge(94,183).
edge(94,184).
edge(94,185).
edge(94,187).
edge(94,189).
edge(94,190).
edge(94,191).
edge(94,192).
edge(94,193).
edge(94,194).
edge(94,195).
edge(94,197).
edge(94,199).
edge(94,201).
edge(94,202).
edge(94,203).
edge(94,204).
edge(94,205).
edge(94,206).
edge(94,207).
edge(94,209).
edge(94,211).
edge(94,212).
edge(94,214).
edge(94,215).
edge(94,216).
edge(94,217).
edge(94,219).
edge(94,221).
edge(94,224).
edge(94,225).
edge(94,226).
edge(94,227).
edge(94,228).
edge(94,229).
edge(94,230).
edge(94,231).
edge(94,232).
edge(94,233).
edge(94,234).
edge(94,235).
edge(94,237).
edge(94,238).
edge(94,239).
edge(94,240).
edge(94,241).
edge(94,242).
edge(94,243).
edge(94,244).
edge(94,245).
edge(94,246).
edge(94,247).
edge(94,249).
edge(95,96).
edge(95,97).
edge(95,98).
edge(95,99).
edge(95,100).
edge(95,102).
edge(95,103).
edge(95,105).
edge(95,106).
edge(95,107).
edge(95,108).
edge(95,109).
edge(95,110).
edge(95,112).
edge(95,113).
edge(95,115).
edge(95,116).
edge(95,117).
edge(95,119).
edge(95,121).
edge(95,123).
edge(95,124).
edge(95,126).
edge(95,127).
edge(95,128).
edge(95,129).
edge(95,130).
edge(95,131).
edge(95,132).
edge(95,133).
edge(95,134).
edge(95,135).
edge(95,136).
edge(95,138).
edge(95,139).
edge(95,140).
edge(95,141).
edge(95,142).
edge(95,143).
edge(95,144).
edge(95,146).
edge(95,148).
edge(95,149).
edge(95,150).
edge(95,151).
edge(95,152).
edge(95,154).
edge(95,156).
edge(95,157).
edge(95,158).
edge(95,159).
edge(95,161).
edge(95,162).
edge(95,163).
edge(95,164).
edge(95,165).
edge(95,166).
edge(95,167).
edge(95,168).
edge(95,169).
edge(95,170).
edge(95,171).
edge(95,172).
edge(95,173).
edge(95,174).
edge(95,175).
edge(95,176).
edge(95,177).
edge(95,179).
edge(95,180).
edge(95,181).
edge(95,182).
edge(95,183).
edge(95,184).
edge(95,185).
edge(95,186).
edge(95,188).
edge(95,189).
edge(95,190).
edge(95,191).
edge(95,192).
edge(95,193).
edge(95,194).
edge(95,195).
edge(95,197).
edge(95,198).
edge(95,199).
edge(95,200).
edge(95,201).
edge(95,202).
edge(95,203).
edge(95,204).
edge(95,205).
edge(95,206).
edge(95,207).
edge(95,208).
edge(95,211).
edge(95,213).
edge(95,214).
edge(95,216).
edge(95,217).
edge(95,218).
edge(95,219).
edge(95,220).
edge(95,221).
edge(95,222).
edge(95,223).
edge(95,224).
edge(95,225).
edge(95,226).
edge(95,227).
edge(95,229).
edge(95,230).
edge(95,231).
edge(95,232).
edge(95,233).
edge(95,234).
edge(95,235).
edge(95,236).
edge(95,237).
edge(95,238).
edge(95,239).
edge(95,240).
edge(95,242).
edge(95,244).
edge(95,245).
edge(95,246).
edge(95,248).
edge(95,249).
edge(95,250).
edge(96,97).
edge(96,99).
edge(96,102).
edge(96,104).
edge(96,105).
edge(96,108).
edge(96,110).
edge(96,112).
edge(96,113).
edge(96,115).
edge(96,116).
edge(96,117).
edge(96,118).
edge(96,120).
edge(96,122).
edge(96,123).
edge(96,124).
edge(96,125).
edge(96,126).
edge(96,127).
edge(96,128).
edge(96,132).
edge(96,133).
edge(96,134).
edge(96,135).
edge(96,140).
edge(96,142).
edge(96,146).
edge(96,149).
edge(96,151).
edge(96,153).
edge(96,156).
edge(96,159).
edge(96,160).
edge(96,161).
edge(96,162).
edge(96,163).
edge(96,164).
edge(96,165).
edge(96,166).
edge(96,168).
edge(96,169).
edge(96,174).
edge(96,176).
edge(96,179).
edge(96,180).
edge(96,181).
edge(96,182).
edge(96,184).
edge(96,185).
edge(96,187).
edge(96,189).
edge(96,194).
edge(96,195).
edge(96,196).
edge(96,197).
edge(96,198).
edge(96,199).
edge(96,202).
edge(96,204).
edge(96,205).
edge(96,207).
edge(96,209).
edge(96,213).
edge(96,214).
edge(96,215).
edge(96,216).
edge(96,217).
edge(96,218).
edge(96,221).
edge(96,222).
edge(96,224).
edge(96,225).
edge(96,226).
edge(96,227).
edge(96,228).
edge(96,232).
edge(96,234).
edge(96,235).
edge(96,236).
edge(96,238).
edge(96,239).
edge(96,240).
edge(96,244).
edge(96,245).
edge(96,247).
edge(96,249).
edge(97,98).
edge(97,99).
edge(97,100).
edge(97,101).
edge(97,104).
edge(97,105).
edge(97,106).
edge(97,107).
edge(97,108).
edge(97,109).
edge(97,111).
edge(97,112).
edge(97,116).
edge(97,117).
edge(97,119).
edge(97,120).
edge(97,121).
edge(97,124).
edge(97,125).
edge(97,126).
edge(97,127).
edge(97,128).
edge(97,129).
edge(97,130).
edge(97,131).
edge(97,132).
edge(97,133).
edge(97,134).
edge(97,136).
edge(97,137).
edge(97,138).
edge(97,139).
edge(97,140).
edge(97,142).
edge(97,143).
edge(97,144).
edge(97,147).
edge(97,148).
edge(97,150).
edge(97,152).
edge(97,153).
edge(97,155).
edge(97,156).
edge(97,157).
edge(97,158).
edge(97,159).
edge(97,160).
edge(97,161).
edge(97,162).
edge(97,163).
edge(97,164).
edge(97,165).
edge(97,167).
edge(97,169).
edge(97,170).
edge(97,171).
edge(97,172).
edge(97,174).
edge(97,175).
edge(97,176).
edge(97,177).
edge(97,179).
edge(97,180).
edge(97,181).
edge(97,182).
edge(97,183).
edge(97,184).
edge(97,185).
edge(97,186).
edge(97,187).
edge(97,188).
edge(97,190).
edge(97,191).
edge(97,192).
edge(97,193).
edge(97,194).
edge(97,195).
edge(97,196).
edge(97,197).
edge(97,199).
edge(97,200).
edge(97,201).
edge(97,202).
edge(97,203).
edge(97,204).
edge(97,205).
edge(97,206).
edge(97,208).
edge(97,209).
edge(97,210).
edge(97,211).
edge(97,213).
edge(97,214).
edge(97,215).
edge(97,217).
edge(97,218).
edge(97,219).
edge(97,221).
edge(97,222).
edge(97,224).
edge(97,226).
edge(97,227).
edge(97,230).
edge(97,231).
edge(97,232).
edge(97,233).
edge(97,234).
edge(97,235).
edge(97,236).
edge(97,237).
edge(97,238).
edge(97,239).
edge(97,240).
edge(97,241).
edge(97,243).
edge(97,244).
edge(97,245).
edge(97,246).
edge(97,248).
edge(97,250).
edge(98,102).
edge(98,103).
edge(98,104).
edge(98,107).
edge(98,109).
edge(98,113).
edge(98,116).
edge(98,120).
edge(98,122).
edge(98,123).
edge(98,124).
edge(98,125).
edge(98,126).
edge(98,130).
edge(98,134).
edge(98,137).
edge(98,139).
edge(98,141).
edge(98,144).
edge(98,146).
edge(98,147).
edge(98,148).
edge(98,153).
edge(98,156).
edge(98,159).
edge(98,162).
edge(98,163).
edge(98,165).
edge(98,166).
edge(98,167).
edge(98,173).
edge(98,174).
edge(98,177).
edge(98,178).
edge(98,179).
edge(98,182).
edge(98,183).
edge(98,184).
edge(98,186).
edge(98,188).
edge(98,189).
edge(98,190).
edge(98,191).
edge(98,192).
edge(98,194).
edge(98,195).
edge(98,196).
edge(98,197).
edge(98,198).
edge(98,200).
edge(98,201).
edge(98,202).
edge(98,205).
edge(98,206).
edge(98,208).
edge(98,210).
edge(98,211).
edge(98,213).
edge(98,215).
edge(98,218).
edge(98,220).
edge(98,221).
edge(98,222).
edge(98,223).
edge(98,225).
edge(98,226).
edge(98,227).
edge(98,229).
edge(98,233).
edge(98,238).
edge(98,239).
edge(98,240).
edge(98,241).
edge(98,242).
edge(98,243).
edge(98,245).
edge(98,246).
edge(98,247).
edge(98,250).
edge(99,100).
edge(99,101).
edge(99,102).
edge(99,105).
edge(99,106).
edge(99,108).
edge(99,109).
edge(99,110).
edge(99,113).
edge(99,114).
edge(99,115).
edge(99,116).
edge(99,119).
edge(99,120).
edge(99,121).
edge(99,122).
edge(99,123).
edge(99,125).
edge(99,127).
edge(99,129).
edge(99,130).
edge(99,131).
edge(99,132).
edge(99,133).
edge(99,134).
edge(99,135).
edge(99,136).
edge(99,137).
edge(99,138).
edge(99,139).
edge(99,140).
edge(99,142).
edge(99,143).
edge(99,144).
edge(99,145).
edge(99,146).
edge(99,147).
edge(99,148).
edge(99,149).
edge(99,150).
edge(99,153).
edge(99,154).
edge(99,159).
edge(99,160).
edge(99,161).
edge(99,162).
edge(99,163).
edge(99,164).
edge(99,167).
edge(99,168).
edge(99,169).
edge(99,171).
edge(99,173).
edge(99,175).
edge(99,176).
edge(99,177).
edge(99,179).
edge(99,180).
edge(99,182).
edge(99,183).
edge(99,186).
edge(99,188).
edge(99,189).
edge(99,190).
edge(99,193).
edge(99,194).
edge(99,196).
edge(99,197).
edge(99,198).
edge(99,199).
edge(99,203).
edge(99,204).
edge(99,205).
edge(99,206).
edge(99,207).
edge(99,209).
edge(99,211).
edge(99,213).
edge(99,214).
edge(99,215).
edge(99,218).
edge(99,219).
edge(99,220).
edge(99,221).
edge(99,224).
edge(99,225).
edge(99,226).
edge(99,229).
edge(99,231).
edge(99,232).
edge(99,233).
edge(99,235).
edge(99,237).
edge(99,240).
edge(99,241).
edge(99,243).
edge(99,244).
edge(99,245).
edge(99,246).
edge(99,247).
edge(99,248).
edge(99,249).
edge(100,101).
edge(100,102).
edge(100,103).
edge(100,105).
edge(100,106).
edge(100,108).
edge(100,109).
edge(100,111).
edge(100,115).
edge(100,116).
edge(100,119).
edge(100,121).
edge(100,123).
edge(100,126).
edge(100,127).
edge(100,129).
edge(100,130).
edge(100,131).
edge(100,133).
edge(100,134).
edge(100,137).
edge(100,143).
edge(100,144).
edge(100,145).
edge(100,146).
edge(100,149).
edge(100,153).
edge(100,154).
edge(100,155).
edge(100,156).
edge(100,157).
edge(100,159).
edge(100,160).
edge(100,161).
edge(100,162).
edge(100,164).
edge(100,166).
edge(100,167).
edge(100,168).
edge(100,170).
edge(100,171).
edge(100,172).
edge(100,174).
edge(100,177).
edge(100,178).
edge(100,183).
edge(100,184).
edge(100,185).
edge(100,187).
edge(100,190).
edge(100,191).
edge(100,193).
edge(100,194).
edge(100,196).
edge(100,197).
edge(100,199).
edge(100,200).
edge(100,201).
edge(100,203).
edge(100,205).
edge(100,206).
edge(100,208).
edge(100,209).
edge(100,210).
edge(100,211).
edge(100,213).
edge(100,214).
edge(100,216).
edge(100,217).
edge(100,218).
edge(100,219).
edge(100,221).
edge(100,222).
edge(100,224).
edge(100,225).
edge(100,228).
edge(100,229).
edge(100,230).
edge(100,231).
edge(100,233).
edge(100,236).
edge(100,237).
edge(100,239).
edge(100,240).
edge(100,241).
edge(100,242).
edge(100,244).
edge(100,245).
edge(100,246).
edge(100,248).
edge(100,249).
edge(101,103).
edge(101,113).
edge(101,114).
edge(101,115).
edge(101,116).
edge(101,117).
edge(101,120).
edge(101,121).
edge(101,122).
edge(101,124).
edge(101,125).
edge(101,128).
edge(101,129).
edge(101,131).
edge(101,132).
edge(101,134).
edge(101,135).
edge(101,137).
edge(101,138).
edge(101,139).
edge(101,141).
edge(101,143).
edge(101,144).
edge(101,145).
edge(101,146).
edge(101,148).
edge(101,150).
edge(101,152).
edge(101,153).
edge(101,154).
edge(101,156).
edge(101,157).
edge(101,159).
edge(101,163).
edge(101,164).
edge(101,165).
edge(101,168).
edge(101,169).
edge(101,170).
edge(101,171).
edge(101,178).
edge(101,181).
edge(101,182).
edge(101,183).
edge(101,184).
edge(101,187).
edge(101,189).
edge(101,190).
edge(101,191).
edge(101,193).
edge(101,194).
edge(101,195).
edge(101,197).
edge(101,198).
edge(101,199).
edge(101,201).
edge(101,203).
edge(101,204).
edge(101,205).
edge(101,206).
edge(101,209).
edge(101,210).
edge(101,211).
edge(101,212).
edge(101,214).
edge(101,215).
edge(101,219).
edge(101,220).
edge(101,222).
edge(101,223).
edge(101,225).
edge(101,227).
edge(101,229).
edge(101,230).
edge(101,231).
edge(101,233).
edge(101,234).
edge(101,235).
edge(101,237).
edge(101,239).
edge(101,241).
edge(101,242).
edge(101,245).
edge(101,246).
edge(101,247).
edge(101,249).
edge(101,250).
edge(102,103).
edge(102,104).
edge(102,105).
edge(102,106).
edge(102,107).
edge(102,108).
edge(102,109).
edge(102,110).
edge(102,111).
edge(102,112).
edge(102,113).
edge(102,115).
edge(102,116).
edge(102,119).
edge(102,120).
edge(102,125).
edge(102,127).
edge(102,129).
edge(102,130).
edge(102,131).
edge(102,132).
edge(102,134).
edge(102,136).
edge(102,137).
edge(102,138).
edge(102,139).
edge(102,141).
edge(102,142).
edge(102,144).
edge(102,145).
edge(102,146).
edge(102,147).
edge(102,150).
edge(102,151).
edge(102,152).
edge(102,153).
edge(102,154).
edge(102,155).
edge(102,156).
edge(102,158).
edge(102,159).
edge(102,160).
edge(102,161).
edge(102,162).
edge(102,164).
edge(102,165).
edge(102,167).
edge(102,168).
edge(102,169).
edge(102,170).
edge(102,171).
edge(102,174).
edge(102,175).
edge(102,176).
edge(102,177).
edge(102,178).
edge(102,180).
edge(102,182).
edge(102,183).
edge(102,184).
edge(102,185).
edge(102,187).
edge(102,189).
edge(102,190).
edge(102,191).
edge(102,194).
edge(102,195).
edge(102,196).
edge(102,197).
edge(102,199).
edge(102,201).
edge(102,202).
edge(102,204).
edge(102,205).
edge(102,207).
edge(102,208).
edge(102,210).
edge(102,211).
edge(102,213).
edge(102,214).
edge(102,215).
edge(102,216).
edge(102,217).
edge(102,220).
edge(102,221).
edge(102,224).
edge(102,225).
edge(102,226).
edge(102,227).
edge(102,228).
edge(102,231).
edge(102,234).
edge(102,235).
edge(102,236).
edge(102,237).
edge(102,238).
edge(102,240).
edge(102,242).
edge(102,244).
edge(102,247).
edge(102,248).
edge(102,249).
edge(102,250).
edge(103,105).
edge(103,106).
edge(103,110).
edge(103,116).
edge(103,117).
edge(103,119).
edge(103,121).
edge(103,122).
edge(103,123).
edge(103,125).
edge(103,127).
edge(103,129).
edge(103,132).
edge(103,135).
edge(103,136).
edge(103,137).
edge(103,141).
edge(103,144).
edge(103,147).
edge(103,148).
edge(103,149).
edge(103,151).
edge(103,152).
edge(103,153).
edge(103,154).
edge(103,156).
edge(103,158).
edge(103,160).
edge(103,163).
edge(103,165).
edge(103,166).
edge(103,169).
edge(103,171).
edge(103,172).
edge(103,174).
edge(103,175).
edge(103,176).
edge(103,177).
edge(103,178).
edge(103,181).
edge(103,184).
edge(103,186).
edge(103,188).
edge(103,190).
edge(103,191).
edge(103,192).
edge(103,194).
edge(103,195).
edge(103,196).
edge(103,197).
edge(103,198).
edge(103,201).
edge(103,204).
edge(103,207).
edge(103,208).
edge(103,209).
edge(103,211).
edge(103,213).
edge(103,215).
edge(103,216).
edge(103,219).
edge(103,220).
edge(103,223).
edge(103,224).
edge(103,225).
edge(103,226).
edge(103,227).
edge(103,228).
edge(103,230).
edge(103,233).
edge(103,235).
edge(103,236).
edge(103,240).
edge(103,242).
edge(103,244).
edge(103,247).
edge(103,248).
edge(103,249).
edge(104,105).
edge(104,107).
edge(104,108).
edge(104,109).
edge(104,110).
edge(104,112).
edge(104,114).
edge(104,117).
edge(104,118).
edge(104,119).
edge(104,120).
edge(104,121).
edge(104,124).
edge(104,125).
edge(104,126).
edge(104,127).
edge(104,128).
edge(104,130).
edge(104,131).
edge(104,132).
edge(104,133).
edge(104,134).
edge(104,135).
edge(104,137).
edge(104,139).
edge(104,140).
edge(104,142).
edge(104,143).
edge(104,144).
edge(104,145).
edge(104,146).
edge(104,147).
edge(104,148).
edge(104,149).
edge(104,150).
edge(104,151).
edge(104,152).
edge(104,154).
edge(104,155).
edge(104,156).
edge(104,157).
edge(104,158).
edge(104,159).
edge(104,160).
edge(104,162).
edge(104,163).
edge(104,164).
edge(104,165).
edge(104,166).
edge(104,167).
edge(104,169).
edge(104,170).
edge(104,171).
edge(104,174).
edge(104,176).
edge(104,177).
edge(104,178).
edge(104,179).
edge(104,180).
edge(104,181).
edge(104,182).
edge(104,183).
edge(104,185).
edge(104,188).
edge(104,190).
edge(104,191).
edge(104,192).
edge(104,193).
edge(104,194).
edge(104,195).
edge(104,196).
edge(104,197).
edge(104,199).
edge(104,201).
edge(104,202).
edge(104,203).
edge(104,204).
edge(104,205).
edge(104,207).
edge(104,209).
edge(104,211).
edge(104,213).
edge(104,214).
edge(104,215).
edge(104,218).
edge(104,219).
edge(104,220).
edge(104,221).
edge(104,222).
edge(104,223).
edge(104,224).
edge(104,225).
edge(104,226).
edge(104,227).
edge(104,229).
edge(104,230).
edge(104,231).
edge(104,232).
edge(104,233).
edge(104,235).
edge(104,237).
edge(104,240).
edge(104,241).
edge(104,242).
edge(104,243).
edge(104,244).
edge(104,245).
edge(104,246).
edge(104,247).
edge(104,248).
edge(104,249).
edge(104,250).
edge(105,106).
edge(105,107).
edge(105,108).
edge(105,110).
edge(105,113).
edge(105,117).
edge(105,118).
edge(105,120).
edge(105,121).
edge(105,124).
edge(105,125).
edge(105,129).
edge(105,130).
edge(105,131).
edge(105,132).
edge(105,133).
edge(105,134).
edge(105,136).
edge(105,138).
edge(105,139).
edge(105,140).
edge(105,141).
edge(105,142).
edge(105,143).
edge(105,145).
edge(105,147).
edge(105,148).
edge(105,149).
edge(105,151).
edge(105,152).
edge(105,153).
edge(105,154).
edge(105,156).
edge(105,157).
edge(105,158).
edge(105,161).
edge(105,162).
edge(105,163).
edge(105,165).
edge(105,166).
edge(105,168).
edge(105,169).
edge(105,171).
edge(105,174).
edge(105,175).
edge(105,176).
edge(105,178).
edge(105,183).
edge(105,184).
edge(105,185).
edge(105,188).
edge(105,190).
edge(105,191).
edge(105,193).
edge(105,194).
edge(105,195).
edge(105,196).
edge(105,199).
edge(105,200).
edge(105,201).
edge(105,202).
edge(105,203).
edge(105,204).
edge(105,205).
edge(105,206).
edge(105,207).
edge(105,208).
edge(105,209).
edge(105,210).
edge(105,213).
edge(105,214).
edge(105,216).
edge(105,217).
edge(105,218).
edge(105,219).
edge(105,221).
edge(105,222).
edge(105,223).
edge(105,224).
edge(105,227).
edge(105,228).
edge(105,229).
edge(105,230).
edge(105,231).
edge(105,232).
edge(105,234).
edge(105,236).
edge(105,237).
edge(105,238).
edge(105,240).
edge(105,241).
edge(105,245).
edge(105,247).
edge(106,108).
edge(106,110).
edge(106,114).
edge(106,116).
edge(106,117).
edge(106,119).
edge(106,121).
edge(106,123).
edge(106,125).
edge(106,127).
edge(106,128).
edge(106,129).
edge(106,130).
edge(106,131).
edge(106,132).
edge(106,134).
edge(106,135).
edge(106,136).
edge(106,137).
edge(106,140).
edge(106,141).
edge(106,144).
edge(106,145).
edge(106,146).
edge(106,154).
edge(106,157).
edge(106,160).
edge(106,161).
edge(106,164).
edge(106,165).
edge(106,169).
edge(106,170).
edge(106,171).
edge(106,172).
edge(106,173).
edge(106,175).
edge(106,176).
edge(106,178).
edge(106,179).
edge(106,180).
edge(106,183).
edge(106,185).
edge(106,186).
edge(106,188).
edge(106,189).
edge(106,190).
edge(106,193).
edge(106,195).
edge(106,199).
edge(106,200).
edge(106,201).
edge(106,202).
edge(106,203).
edge(106,204).
edge(106,207).
edge(106,208).
edge(106,211).
edge(106,214).
edge(106,216).
edge(106,221).
edge(106,223).
edge(106,224).
edge(106,225).
edge(106,226).
edge(106,229).
edge(106,231).
edge(106,232).
edge(106,233).
edge(106,234).
edge(106,236).
edge(106,238).
edge(106,239).
edge(106,240).
edge(106,242).
edge(106,244).
edge(106,246).
edge(106,247).
edge(106,249).
edge(106,250).
edge(107,108).
edge(107,109).
edge(107,110).
edge(107,111).
edge(107,113).
edge(107,116).
edge(107,117).
edge(107,120).
edge(107,121).
edge(107,122).
edge(107,125).
edge(107,126).
edge(107,130).
edge(107,131).
edge(107,132).
edge(107,133).
edge(107,134).
edge(107,135).
edge(107,136).
edge(107,138).
edge(107,139).
edge(107,140).
edge(107,141).
edge(107,142).
edge(107,144).
edge(107,146).
edge(107,147).
edge(107,148).
edge(107,150).
edge(107,153).
edge(107,154).
edge(107,155).
edge(107,156).
edge(107,157).
edge(107,158).
edge(107,160).
edge(107,161).
edge(107,162).
edge(107,164).
edge(107,165).
edge(107,166).
edge(107,167).
edge(107,168).
edge(107,169).
edge(107,170).
edge(107,171).
edge(107,172).
edge(107,173).
edge(107,175).
edge(107,177).
edge(107,178).
edge(107,181).
edge(107,182).
edge(107,183).
edge(107,184).
edge(107,185).
edge(107,186).
edge(107,187).
edge(107,189).
edge(107,190).
edge(107,191).
edge(107,194).
edge(107,196).
edge(107,197).
edge(107,198).
edge(107,199).
edge(107,200).
edge(107,201).
edge(107,202).
edge(107,203).
edge(107,204).
edge(107,205).
edge(107,206).
edge(107,207).
edge(107,208).
edge(107,211).
edge(107,212).
edge(107,213).
edge(107,214).
edge(107,216).
edge(107,218).
edge(107,219).
edge(107,220).
edge(107,223).
edge(107,224).
edge(107,225).
edge(107,226).
edge(107,229).
edge(107,230).
edge(107,231).
edge(107,233).
edge(107,234).
edge(107,235).
edge(107,236).
edge(107,238).
edge(107,239).
edge(107,240).
edge(107,241).
edge(107,244).
edge(107,245).
edge(107,246).
edge(107,247).
edge(107,248).
edge(107,249).
edge(108,109).
edge(108,112).
edge(108,113).
edge(108,114).
edge(108,118).
edge(108,120).
edge(108,121).
edge(108,125).
edge(108,128).
edge(108,130).
edge(108,132).
edge(108,135).
edge(108,136).
edge(108,137).
edge(108,138).
edge(108,139).
edge(108,140).
edge(108,141).
edge(108,142).
edge(108,145).
edge(108,146).
edge(108,147).
edge(108,148).
edge(108,150).
edge(108,151).
edge(108,152).
edge(108,153).
edge(108,154).
edge(108,155).
edge(108,156).
edge(108,157).
edge(108,158).
edge(108,159).
edge(108,160).
edge(108,161).
edge(108,164).
edge(108,165).
edge(108,169).
edge(108,170).
edge(108,171).
edge(108,172).
edge(108,174).
edge(108,175).
edge(108,178).
edge(108,181).
edge(108,183).
edge(108,184).
edge(108,186).
edge(108,187).
edge(108,188).
edge(108,190).
edge(108,191).
edge(108,194).
edge(108,195).
edge(108,197).
edge(108,198).
edge(108,199).
edge(108,201).
edge(108,202).
edge(108,203).
edge(108,204).
edge(108,205).
edge(108,207).
edge(108,209).
edge(108,210).
edge(108,211).
edge(108,212).
edge(108,215).
edge(108,216).
edge(108,217).
edge(108,218).
edge(108,219).
edge(108,221).
edge(108,222).
edge(108,224).
edge(108,225).
edge(108,226).
edge(108,227).
edge(108,231).
edge(108,232).
edge(108,233).
edge(108,234).
edge(108,235).
edge(108,236).
edge(108,239).
edge(108,240).
edge(108,241).
edge(108,242).
edge(108,243).
edge(108,244).
edge(108,247).
edge(108,248).
edge(108,249).
edge(108,250).
edge(109,110).
edge(109,111).
edge(109,112).
edge(109,113).
edge(109,115).
edge(109,116).
edge(109,117).
edge(109,118).
edge(109,120).
edge(109,123).
edge(109,124).
edge(109,125).
edge(109,132).
edge(109,134).
edge(109,135).
edge(109,137).
edge(109,138).
edge(109,139).
edge(109,140).
edge(109,141).
edge(109,144).
edge(109,145).
edge(109,146).
edge(109,148).
edge(109,149).
edge(109,150).
edge(109,151).
edge(109,156).
edge(109,159).
edge(109,160).
edge(109,161).
edge(109,162).
edge(109,163).
edge(109,164).
edge(109,165).
edge(109,167).
edge(109,168).
edge(109,169).
edge(109,170).
edge(109,171).
edge(109,172).
edge(109,173).
edge(109,175).
edge(109,176).
edge(109,179).
edge(109,180).
edge(109,182).
edge(109,184).
edge(109,186).
edge(109,187).
edge(109,188).
edge(109,190).
edge(109,193).
edge(109,195).
edge(109,196).
edge(109,200).
edge(109,201).
edge(109,202).
edge(109,203).
edge(109,205).
edge(109,206).
edge(109,207).
edge(109,209).
edge(109,210).
edge(109,211).
edge(109,212).
edge(109,213).
edge(109,214).
edge(109,215).
edge(109,216).
edge(109,217).
edge(109,218).
edge(109,221).
edge(109,222).
edge(109,225).
edge(109,227).
edge(109,229).
edge(109,230).
edge(109,231).
edge(109,232).
edge(109,234).
edge(109,236).
edge(109,237).
edge(109,239).
edge(109,240).
edge(109,241).
edge(109,242).
edge(109,244).
edge(109,245).
edge(109,246).
edge(109,247).
edge(109,249).
edge(109,250).
edge(110,111).
edge(110,114).
edge(110,115).
edge(110,116).
edge(110,117).
edge(110,123).
edge(110,126).
edge(110,128).
edge(110,130).
edge(110,131).
edge(110,132).
edge(110,134).
edge(110,136).
edge(110,138).
edge(110,139).
edge(110,141).
edge(110,144).
edge(110,146).
edge(110,147).
edge(110,148).
edge(110,150).
edge(110,152).
edge(110,154).
edge(110,155).
edge(110,156).
edge(110,158).
edge(110,160).
edge(110,161).
edge(110,162).
edge(110,165).
edge(110,166).
edge(110,167).
edge(110,168).
edge(110,172).
edge(110,174).
edge(110,175).
edge(110,176).
edge(110,177).
edge(110,178).
edge(110,179).
edge(110,180).
edge(110,182).
edge(110,184).
edge(110,185).
edge(110,186).
edge(110,187).
edge(110,190).
edge(110,192).
edge(110,193).
edge(110,194).
edge(110,196).
edge(110,197).
edge(110,198).
edge(110,199).
edge(110,201).
edge(110,202).
edge(110,203).
edge(110,204).
edge(110,205).
edge(110,207).
edge(110,208).
edge(110,209).
edge(110,212).
edge(110,213).
edge(110,214).
edge(110,217).
edge(110,218).
edge(110,221).
edge(110,222).
edge(110,223).
edge(110,224).
edge(110,225).
edge(110,226).
edge(110,227).
edge(110,229).
edge(110,231).
edge(110,232).
edge(110,233).
edge(110,234).
edge(110,236).
edge(110,237).
edge(110,238).
edge(110,239).
edge(110,240).
edge(110,241).
edge(110,242).
edge(110,243).
edge(110,244).
edge(110,245).
edge(110,247).
edge(110,249).
edge(110,250).
edge(111,112).
edge(111,117).
edge(111,118).
edge(111,120).
edge(111,121).
edge(111,122).
edge(111,126).
edge(111,127).
edge(111,128).
edge(111,131).
edge(111,133).
edge(111,134).
edge(111,135).
edge(111,137).
edge(111,138).
edge(111,139).
edge(111,140).
edge(111,143).
edge(111,144).
edge(111,147).
edge(111,149).
edge(111,150).
edge(111,151).
edge(111,153).
edge(111,155).
edge(111,157).
edge(111,160).
edge(111,161).
edge(111,162).
edge(111,164).
edge(111,167).
edge(111,168).
edge(111,169).
edge(111,170).
edge(111,172).
edge(111,173).
edge(111,174).
edge(111,175).
edge(111,176).
edge(111,177).
edge(111,179).
edge(111,182).
edge(111,183).
edge(111,185).
edge(111,186).
edge(111,190).
edge(111,191).
edge(111,192).
edge(111,193).
edge(111,195).
edge(111,196).
edge(111,197).
edge(111,198).
edge(111,201).
edge(111,203).
edge(111,205).
edge(111,207).
edge(111,208).
edge(111,210).
edge(111,212).
edge(111,214).
edge(111,215).
edge(111,217).
edge(111,218).
edge(111,220).
edge(111,221).
edge(111,223).
edge(111,224).
edge(111,225).
edge(111,227).
edge(111,230).
edge(111,236).
edge(111,237).
edge(111,240).
edge(111,245).
edge(111,246).
edge(111,247).
edge(111,250).
edge(112,113).
edge(112,114).
edge(112,117).
edge(112,119).
edge(112,120).
edge(112,121).
edge(112,122).
edge(112,124).
edge(112,125).
edge(112,126).
edge(112,127).
edge(112,128).
edge(112,129).
edge(112,130).
edge(112,131).
edge(112,132).
edge(112,133).
edge(112,134).
edge(112,135).
edge(112,136).
edge(112,137).
edge(112,139).
edge(112,141).
edge(112,142).
edge(112,143).
edge(112,144).
edge(112,145).
edge(112,149).
edge(112,153).
edge(112,155).
edge(112,156).
edge(112,158).
edge(112,159).
edge(112,160).
edge(112,161).
edge(112,162).
edge(112,163).
edge(112,164).
edge(112,165).
edge(112,166).
edge(112,167).
edge(112,168).
edge(112,169).
edge(112,170).
edge(112,173).
edge(112,174).
edge(112,175).
edge(112,176).
edge(112,177).
edge(112,178).
edge(112,179).
edge(112,180).
edge(112,181).
edge(112,183).
edge(112,184).
edge(112,185).
edge(112,186).
edge(112,189).
edge(112,190).
edge(112,191).
edge(112,192).
edge(112,193).
edge(112,195).
edge(112,197).
edge(112,199).
edge(112,201).
edge(112,202).
edge(112,203).
edge(112,204).
edge(112,205).
edge(112,206).
edge(112,207).
edge(112,211).
edge(112,212).
edge(112,215).
edge(112,216).
edge(112,217).
edge(112,218).
edge(112,219).
edge(112,220).
edge(112,221).
edge(112,223).
edge(112,224).
edge(112,225).
edge(112,226).
edge(112,228).
edge(112,229).
edge(112,230).
edge(112,231).
edge(112,232).
edge(112,233).
edge(112,234).
edge(112,235).
edge(112,236).
edge(112,237).
edge(112,238).
edge(112,239).
edge(112,241).
edge(112,243).
edge(112,244).
edge(112,245).
edge(112,246).
edge(112,247).
edge(112,250).
edge(113,114).
edge(113,115).
edge(113,118).
edge(113,121).
edge(113,122).
edge(113,123).
edge(113,124).
edge(113,125).
edge(113,126).
edge(113,127).
edge(113,131).
edge(113,132).
edge(113,133).
edge(113,134).
edge(113,135).
edge(113,136).
edge(113,137).
edge(113,138).
edge(113,139).
edge(113,140).
edge(113,143).
edge(113,144).
edge(113,145).
edge(113,146).
edge(113,147).
edge(113,148).
edge(113,151).
edge(113,152).
edge(113,153).
edge(113,154).
edge(113,155).
edge(113,157).
edge(113,158).
edge(113,159).
edge(113,160).
edge(113,163).
edge(113,164).
edge(113,167).
edge(113,168).
edge(113,171).
edge(113,173).
edge(113,174).
edge(113,177).
edge(113,178).
edge(113,179).
edge(113,180).
edge(113,181).
edge(113,183).
edge(113,184).
edge(113,185).
edge(113,186).
edge(113,187).
edge(113,190).
edge(113,191).
edge(113,192).
edge(113,193).
edge(113,194).
edge(113,196).
edge(113,200).
edge(113,201).
edge(113,202).
edge(113,203).
edge(113,204).
edge(113,205).
edge(113,206).
edge(113,207).
edge(113,208).
edge(113,209).
edge(113,210).
edge(113,211).
edge(113,213).
edge(113,214).
edge(113,216).
edge(113,217).
edge(113,218).
edge(113,219).
edge(113,220).
edge(113,221).
edge(113,224).
edge(113,227).
edge(113,228).
edge(113,229).
edge(113,230).
edge(113,235).
edge(113,236).
edge(113,238).
edge(113,239).
edge(113,240).
edge(113,241).
edge(113,242).
edge(113,246).
edge(113,247).
edge(113,248).
edge(113,249).
edge(113,250).
edge(114,115).
edge(114,116).
edge(114,117).
edge(114,118).
edge(114,119).
edge(114,120).
edge(114,121).
edge(114,122).
edge(114,123).
edge(114,124).
edge(114,126).
edge(114,128).
edge(114,129).
edge(114,130).
edge(114,131).
edge(114,132).
edge(114,134).
edge(114,135).
edge(114,138).
edge(114,139).
edge(114,140).
edge(114,142).
edge(114,146).
edge(114,147).
edge(114,148).
edge(114,149).
edge(114,150).
edge(114,153).
edge(114,154).
edge(114,156).
edge(114,157).
edge(114,159).
edge(114,160).
edge(114,161).
edge(114,162).
edge(114,163).
edge(114,164).
edge(114,165).
edge(114,168).
edge(114,169).
edge(114,170).
edge(114,171).
edge(114,173).
edge(114,174).
edge(114,175).
edge(114,176).
edge(114,177).
edge(114,178).
edge(114,179).
edge(114,180).
edge(114,181).
edge(114,184).
edge(114,185).
edge(114,186).
edge(114,187).
edge(114,188).
edge(114,191).
edge(114,192).
edge(114,194).
edge(114,195).
edge(114,196).
edge(114,197).
edge(114,198).
edge(114,199).
edge(114,201).
edge(114,203).
edge(114,204).
edge(114,205).
edge(114,207).
edge(114,209).
edge(114,210).
edge(114,211).
edge(114,213).
edge(114,214).
edge(114,215).
edge(114,216).
edge(114,218).
edge(114,221).
edge(114,222).
edge(114,223).
edge(114,225).
edge(114,226).
edge(114,227).
edge(114,228).
edge(114,229).
edge(114,230).
edge(114,231).
edge(114,232).
edge(114,233).
edge(114,234).
edge(114,235).
edge(114,236).
edge(114,237).
edge(114,238).
edge(114,239).
edge(114,240).
edge(114,241).
edge(114,242).
edge(114,243).
edge(114,246).
edge(114,247).
edge(114,248).
edge(114,249).
edge(114,250).
edge(115,117).
edge(115,119).
edge(115,120).
edge(115,121).
edge(115,122).
edge(115,124).
edge(115,125).
edge(115,127).
edge(115,128).
edge(115,129).
edge(115,131).
edge(115,132).
edge(115,133).
edge(115,136).
edge(115,137).
edge(115,140).
edge(115,142).
edge(115,145).
edge(115,146).
edge(115,148).
edge(115,149).
edge(115,152).
edge(115,153).
edge(115,156).
edge(115,157).
edge(115,160).
edge(115,163).
edge(115,165).
edge(115,166).
edge(115,167).
edge(115,168).
edge(115,169).
edge(115,170).
edge(115,171).
edge(115,172).
edge(115,174).
edge(115,175).
edge(115,176).
edge(115,177).
edge(115,179).
edge(115,181).
edge(115,182).
edge(115,183).
edge(115,184).
edge(115,185).
edge(115,186).
edge(115,190).
edge(115,191).
edge(115,192).
edge(115,194).
edge(115,195).
edge(115,197).
edge(115,199).
edge(115,201).
edge(115,203).
edge(115,204).
edge(115,205).
edge(115,206).
edge(115,208).
edge(115,209).
edge(115,211).
edge(115,212).
edge(115,213).
edge(115,214).
edge(115,216).
edge(115,217).
edge(115,218).
edge(115,219).
edge(115,220).
edge(115,221).
edge(115,222).
edge(115,223).
edge(115,224).
edge(115,225).
edge(115,226).
edge(115,227).
edge(115,228).
edge(115,231).
edge(115,232).
edge(115,234).
edge(115,235).
edge(115,238).
edge(115,240).
edge(115,241).
edge(115,242).
edge(115,243).
edge(115,244).
edge(115,246).
edge(115,247).
edge(115,248).
edge(115,249).
edge(115,250).
edge(116,118).
edge(116,119).
edge(116,120).
edge(116,122).
edge(116,123).
edge(116,125).
edge(116,126).
edge(116,128).
edge(116,129).
edge(116,130).
edge(116,131).
edge(116,132).
edge(116,133).
edge(116,134).
edge(116,136).
edge(116,138).
edge(116,139).
edge(116,143).
edge(116,144).
edge(116,146).
edge(116,148).
edge(116,151).
edge(116,152).
edge(116,153).
edge(116,154).
edge(116,155).
edge(116,156).
edge(116,157).
edge(116,158).
edge(116,160).
edge(116,161).
edge(116,162).
edge(116,163).
edge(116,165).
edge(116,166).
edge(116,167).
edge(116,168).
edge(116,169).
edge(116,171).
edge(116,172).
edge(116,173).
edge(116,175).
edge(116,176).
edge(116,177).
edge(116,180).
edge(116,181).
edge(116,182).
edge(116,183).
edge(116,184).
edge(116,185).
edge(116,186).
edge(116,189).
edge(116,191).
edge(116,192).
edge(116,193).
edge(116,196).
edge(116,197).
edge(116,203).
edge(116,205).
edge(116,207).
edge(116,209).
edge(116,212).
edge(116,213).
edge(116,214).
edge(116,215).
edge(116,218).
edge(116,219).
edge(116,226).
edge(116,227).
edge(116,230).
edge(116,235).
edge(116,237).
edge(116,239).
edge(116,240).
edge(116,241).
edge(116,242).
edge(116,243).
edge(116,244).
edge(116,246).
edge(116,247).
edge(116,249).
edge(116,250).
edge(117,119).
edge(117,121).
edge(117,123).
edge(117,124).
edge(117,126).
edge(117,127).
edge(117,128).
edge(117,130).
edge(117,131).
edge(117,133).
edge(117,134).
edge(117,135).
edge(117,137).
edge(117,138).
edge(117,139).
edge(117,140).
edge(117,141).
edge(117,142).
edge(117,144).
edge(117,145).
edge(117,146).
edge(117,147).
edge(117,148).
edge(117,149).
edge(117,150).
edge(117,151).
edge(117,152).
edge(117,153).
edge(117,155).
edge(117,157).
edge(117,158).
edge(117,160).
edge(117,161).
edge(117,162).
edge(117,163).
edge(117,164).
edge(117,165).
edge(117,166).
edge(117,167).
edge(117,168).
edge(117,169).
edge(117,170).
edge(117,171).
edge(117,174).
edge(117,175).
edge(117,177).
edge(117,178).
edge(117,179).
edge(117,180).
edge(117,181).
edge(117,184).
edge(117,185).
edge(117,186).
edge(117,190).
edge(117,191).
edge(117,193).
edge(117,194).
edge(117,195).
edge(117,199).
edge(117,201).
edge(117,202).
edge(117,203).
edge(117,204).
edge(117,205).
edge(117,206).
edge(117,207).
edge(117,208).
edge(117,209).
edge(117,210).
edge(117,211).
edge(117,212).
edge(117,215).
edge(117,217).
edge(117,218).
edge(117,219).
edge(117,220).
edge(117,222).
edge(117,224).
edge(117,225).
edge(117,226).
edge(117,227).
edge(117,228).
edge(117,229).
edge(117,231).
edge(117,232).
edge(117,233).
edge(117,234).
edge(117,235).
edge(117,238).
edge(117,240).
edge(117,241).
edge(117,242).
edge(117,243).
edge(117,244).
edge(117,246).
edge(117,247).
edge(117,249).
edge(118,119).
edge(118,120).
edge(118,121).
edge(118,122).
edge(118,123).
edge(118,124).
edge(118,125).
edge(118,126).
edge(118,127).
edge(118,128).
edge(118,130).
edge(118,132).
edge(118,133).
edge(118,134).
edge(118,135).
edge(118,137).
edge(118,140).
edge(118,141).
edge(118,142).
edge(118,143).
edge(118,144).
edge(118,145).
edge(118,146).
edge(118,149).
edge(118,152).
edge(118,154).
edge(118,158).
edge(118,160).
edge(118,161).
edge(118,163).
edge(118,164).
edge(118,167).
edge(118,168).
edge(118,169).
edge(118,170).
edge(118,171).
edge(118,172).
edge(118,175).
edge(118,176).
edge(118,179).
edge(118,180).
edge(118,181).
edge(118,182).
edge(118,184).
edge(118,185).
edge(118,187).
edge(118,188).
edge(118,194).
edge(118,197).
edge(118,199).
edge(118,202).
edge(118,203).
edge(118,204).
edge(118,205).
edge(118,207).
edge(118,209).
edge(118,210).
edge(118,211).
edge(118,212).
edge(118,214).
edge(118,217).
edge(118,218).
edge(118,220).
edge(118,222).
edge(118,223).
edge(118,226).
edge(118,227).
edge(118,229).
edge(118,230).
edge(118,231).
edge(118,232).
edge(118,233).
edge(118,234).
edge(118,235).
edge(118,239).
edge(118,242).
edge(118,243).
edge(118,245).
edge(118,247).
edge(118,248).
edge(118,249).
edge(119,120).
edge(119,122).
edge(119,123).
edge(119,124).
edge(119,125).
edge(119,126).
edge(119,127).
edge(119,128).
edge(119,129).
edge(119,130).
edge(119,131).
edge(119,132).
edge(119,133).
edge(119,134).
edge(119,135).
edge(119,137).
edge(119,139).
edge(119,141).
edge(119,143).
edge(119,146).
edge(119,147).
edge(119,149).
edge(119,150).
edge(119,151).
edge(119,154).
edge(119,157).
edge(119,159).
edge(119,160).
edge(119,161).
edge(119,162).
edge(119,163).
edge(119,164).
edge(119,165).
edge(119,167).
edge(119,168).
edge(119,169).
edge(119,171).
edge(119,172).
edge(119,174).
edge(119,175).
edge(119,176).
edge(119,177).
edge(119,178).
edge(119,179).
edge(119,180).
edge(119,181).
edge(119,182).
edge(119,184).
edge(119,185).
edge(119,186).
edge(119,189).
edge(119,191).
edge(119,192).
edge(119,193).
edge(119,195).
edge(119,196).
edge(119,197).
edge(119,198).
edge(119,199).
edge(119,202).
edge(119,204).
edge(119,205).
edge(119,207).
edge(119,209).
edge(119,210).
edge(119,211).
edge(119,212).
edge(119,213).
edge(119,214).
edge(119,215).
edge(119,216).
edge(119,217).
edge(119,219).
edge(119,220).
edge(119,221).
edge(119,222).
edge(119,224).
edge(119,225).
edge(119,226).
edge(119,229).
edge(119,230).
edge(119,231).
edge(119,232).
edge(119,233).
edge(119,234).
edge(119,235).
edge(119,236).
edge(119,237).
edge(119,238).
edge(119,239).
edge(119,241).
edge(119,242).
edge(119,243).
edge(119,245).
edge(119,246).
edge(119,247).
edge(119,248).
edge(119,249).
edge(120,122).
edge(120,123).
edge(120,124).
edge(120,125).
edge(120,127).
edge(120,128).
edge(120,129).
edge(120,130).
edge(120,132).
edge(120,133).
edge(120,134).
edge(120,135).
edge(120,136).
edge(120,139).
edge(120,141).
edge(120,142).
edge(120,143).
edge(120,144).
edge(120,145).
edge(120,146).
edge(120,149).
edge(120,150).
edge(120,151).
edge(120,153).
edge(120,154).
edge(120,155).
edge(120,157).
edge(120,158).
edge(120,161).
edge(120,163).
edge(120,165).
edge(120,166).
edge(120,167).
edge(120,168).
edge(120,169).
edge(120,170).
edge(120,171).
edge(120,173).
edge(120,174).
edge(120,177).
edge(120,178).
edge(120,179).
edge(120,180).
edge(120,181).
edge(120,182).
edge(120,183).
edge(120,184).
edge(120,186).
edge(120,187).
edge(120,188).
edge(120,189).
edge(120,190).
edge(120,191).
edge(120,192).
edge(120,193).
edge(120,194).
edge(120,197).
edge(120,199).
edge(120,201).
edge(120,202).
edge(120,203).
edge(120,204).
edge(120,205).
edge(120,206).
edge(120,207).
edge(120,208).
edge(120,209).
edge(120,210).
edge(120,217).
edge(120,218).
edge(120,219).
edge(120,220).
edge(120,222).
edge(120,223).
edge(120,225).
edge(120,227).
edge(120,228).
edge(120,229).
edge(120,231).
edge(120,234).
edge(120,235).
edge(120,238).
edge(120,239).
edge(120,240).
edge(120,242).
edge(120,244).
edge(120,247).
edge(120,248).
edge(120,249).
edge(121,124).
edge(121,126).
edge(121,127).
edge(121,128).
edge(121,130).
edge(121,131).
edge(121,132).
edge(121,133).
edge(121,134).
edge(121,137).
edge(121,138).
edge(121,139).
edge(121,140).
edge(121,141).
edge(121,142).
edge(121,143).
edge(121,144).
edge(121,148).
edge(121,149).
edge(121,150).
edge(121,152).
edge(121,153).
edge(121,154).
edge(121,155).
edge(121,156).
edge(121,157).
edge(121,159).
edge(121,160).
edge(121,161).
edge(121,162).
edge(121,163).
edge(121,164).
edge(121,165).
edge(121,166).
edge(121,167).
edge(121,168).
edge(121,169).
edge(121,170).
edge(121,172).
edge(121,173).
edge(121,175).
edge(121,176).
edge(121,177).
edge(121,179).
edge(121,180).
edge(121,181).
edge(121,183).
edge(121,184).
edge(121,185).
edge(121,186).
edge(121,187).
edge(121,188).
edge(121,189).
edge(121,190).
edge(121,191).
edge(121,193).
edge(121,194).
edge(121,195).
edge(121,196).
edge(121,198).
edge(121,199).
edge(121,200).
edge(121,201).
edge(121,202).
edge(121,203).
edge(121,206).
edge(121,207).
edge(121,208).
edge(121,211).
edge(121,215).
edge(121,216).
edge(121,217).
edge(121,218).
edge(121,219).
edge(121,220).
edge(121,221).
edge(121,222).
edge(121,223).
edge(121,224).
edge(121,225).
edge(121,226).
edge(121,227).
edge(121,228).
edge(121,231).
edge(121,232).
edge(121,233).
edge(121,234).
edge(121,235).
edge(121,236).
edge(121,237).
edge(121,238).
edge(121,240).
edge(121,243).
edge(121,244).
edge(121,245).
edge(121,247).
edge(121,248).
edge(122,123).
edge(122,125).
edge(122,127).
edge(122,131).
edge(122,132).
edge(122,136).
edge(122,138).
edge(122,139).
edge(122,140).
edge(122,141).
edge(122,142).
edge(122,143).
edge(122,147).
edge(122,148).
edge(122,152).
edge(122,153).
edge(122,154).
edge(122,155).
edge(122,158).
edge(122,159).
edge(122,160).
edge(122,161).
edge(122,162).
edge(122,163).
edge(122,164).
edge(122,166).
edge(122,168).
edge(122,169).
edge(122,172).
edge(122,174).
edge(122,177).
edge(122,179).
edge(122,181).
edge(122,183).
edge(122,185).
edge(122,191).
edge(122,192).
edge(122,193).
edge(122,197).
edge(122,200).
edge(122,201).
edge(122,202).
edge(122,203).
edge(122,204).
edge(122,206).
edge(122,208).
edge(122,209).
edge(122,214).
edge(122,215).
edge(122,216).
edge(122,217).
edge(122,218).
edge(122,220).
edge(122,223).
edge(122,227).
edge(122,228).
edge(122,230).
edge(122,231).
edge(122,232).
edge(122,234).
edge(122,235).
edge(122,236).
edge(122,237).
edge(122,238).
edge(122,244).
edge(122,245).
edge(122,246).
edge(122,248).
edge(122,249).
edge(122,250).
edge(123,124).
edge(123,125).
edge(123,126).
edge(123,128).
edge(123,129).
edge(123,130).
edge(123,131).
edge(123,132).
edge(123,133).
edge(123,134).
edge(123,135).
edge(123,136).
edge(123,137).
edge(123,138).
edge(123,139).
edge(123,140).
edge(123,142).
edge(123,143).
edge(123,144).
edge(123,146).
edge(123,148).
edge(123,149).
edge(123,150).
edge(123,152).
edge(123,153).
edge(123,156).
edge(123,158).
edge(123,159).
edge(123,160).
edge(123,163).
edge(123,164).
edge(123,165).
edge(123,166).
edge(123,167).
edge(123,168).
edge(123,169).
edge(123,171).
edge(123,174).
edge(123,176).
edge(123,177).
edge(123,179).
edge(123,180).
edge(123,181).
edge(123,182).
edge(123,183).
edge(123,184).
edge(123,185).
edge(123,186).
edge(123,188).
edge(123,189).
edge(123,190).
edge(123,193).
edge(123,194).
edge(123,195).
edge(123,196).
edge(123,197).
edge(123,199).
edge(123,200).
edge(123,202).
edge(123,203).
edge(123,204).
edge(123,205).
edge(123,206).
edge(123,209).
edge(123,211).
edge(123,215).
edge(123,216).
edge(123,218).
edge(123,220).
edge(123,221).
edge(123,223).
edge(123,224).
edge(123,225).
edge(123,227).
edge(123,229).
edge(123,230).
edge(123,231).
edge(123,232).
edge(123,233).
edge(123,235).
edge(123,238).
edge(123,239).
edge(123,241).
edge(123,242).
edge(123,243).
edge(123,244).
edge(123,245).
edge(123,246).
edge(123,248).
edge(123,249).
edge(124,125).
edge(124,127).
edge(124,128).
edge(124,129).
edge(124,130).
edge(124,131).
edge(124,133).
edge(124,134).
edge(124,135).
edge(124,136).
edge(124,137).
edge(124,142).
edge(124,143).
edge(124,144).
edge(124,145).
edge(124,146).
edge(124,147).
edge(124,148).
edge(124,149).
edge(124,150).
edge(124,151).
edge(124,152).
edge(124,153).
edge(124,156).
edge(124,157).
edge(124,158).
edge(124,159).
edge(124,160).
edge(124,161).
edge(124,162).
edge(124,163).
edge(124,165).
edge(124,166).
edge(124,167).
edge(124,168).
edge(124,169).
edge(124,171).
edge(124,174).
edge(124,177).
edge(124,178).
edge(124,179).
edge(124,180).
edge(124,181).
edge(124,184).
edge(124,185).
edge(124,186).
edge(124,187).
edge(124,191).
edge(124,192).
edge(124,194).
edge(124,195).
edge(124,196).
edge(124,197).
edge(124,198).
edge(124,199).
edge(124,200).
edge(124,201).
edge(124,202).
edge(124,204).
edge(124,206).
edge(124,207).
edge(124,208).
edge(124,209).
edge(124,210).
edge(124,211).
edge(124,212).
edge(124,213).
edge(124,214).
edge(124,215).
edge(124,216).
edge(124,217).
edge(124,218).
edge(124,219).
edge(124,220).
edge(124,221).
edge(124,222).
edge(124,223).
edge(124,224).
edge(124,225).
edge(124,226).
edge(124,227).
edge(124,229).
edge(124,231).
edge(124,232).
edge(124,233).
edge(124,234).
edge(124,235).
edge(124,237).
edge(124,238).
edge(124,240).
edge(124,241).
edge(124,242).
edge(124,243).
edge(124,244).
edge(124,245).
edge(124,246).
edge(124,247).
edge(124,248).
edge(124,249).
edge(125,126).
edge(125,127).
edge(125,128).
edge(125,129).
edge(125,130).
edge(125,131).
edge(125,132).
edge(125,135).
edge(125,137).
edge(125,139).
edge(125,140).
edge(125,141).
edge(125,142).
edge(125,143).
edge(125,144).
edge(125,147).
edge(125,148).
edge(125,149).
edge(125,150).
edge(125,151).
edge(125,152).
edge(125,154).
edge(125,157).
edge(125,158).
edge(125,162).
edge(125,163).
edge(125,165).
edge(125,166).
edge(125,167).
edge(125,169).
edge(125,170).
edge(125,172).
edge(125,173).
edge(125,174).
edge(125,175).
edge(125,178).
edge(125,179).
edge(125,180).
edge(125,181).
edge(125,182).
edge(125,183).
edge(125,185).
edge(125,187).
edge(125,188).
edge(125,189).
edge(125,190).
edge(125,191).
edge(125,192).
edge(125,194).
edge(125,195).
edge(125,197).
edge(125,198).
edge(125,199).
edge(125,200).
edge(125,201).
edge(125,202).
edge(125,203).
edge(125,204).
edge(125,205).
edge(125,207).
edge(125,210).
edge(125,211).
edge(125,212).
edge(125,215).
edge(125,217).
edge(125,218).
edge(125,227).
edge(125,228).
edge(125,230).
edge(125,231).
edge(125,233).
edge(125,234).
edge(125,235).
edge(125,236).
edge(125,240).
edge(125,242).
edge(125,243).
edge(125,245).
edge(125,246).
edge(125,247).
edge(126,127).
edge(126,129).
edge(126,130).
edge(126,131).
edge(126,132).
edge(126,133).
edge(126,134).
edge(126,135).
edge(126,137).
edge(126,139).
edge(126,140).
edge(126,141).
edge(126,144).
edge(126,145).
edge(126,146).
edge(126,147).
edge(126,148).
edge(126,149).
edge(126,150).
edge(126,156).
edge(126,157).
edge(126,158).
edge(126,159).
edge(126,160).
edge(126,161).
edge(126,162).
edge(126,163).
edge(126,164).
edge(126,165).
edge(126,166).
edge(126,167).
edge(126,168).
edge(126,170).
edge(126,172).
edge(126,173).
edge(126,174).
edge(126,175).
edge(126,178).
edge(126,179).
edge(126,180).
edge(126,181).
edge(126,184).
edge(126,185).
edge(126,188).
edge(126,189).
edge(126,190).
edge(126,191).
edge(126,192).
edge(126,193).
edge(126,194).
edge(126,195).
edge(126,196).
edge(126,198).
edge(126,199).
edge(126,200).
edge(126,202).
edge(126,203).
edge(126,204).
edge(126,206).
edge(126,207).
edge(126,208).
edge(126,210).
edge(126,211).
edge(126,212).
edge(126,213).
edge(126,215).
edge(126,216).
edge(126,217).
edge(126,218).
edge(126,219).
edge(126,221).
edge(126,222).
edge(126,225).
edge(126,226).
edge(126,229).
edge(126,230).
edge(126,233).
edge(126,234).
edge(126,237).
edge(126,238).
edge(126,239).
edge(126,241).
edge(126,242).
edge(126,243).
edge(126,245).
edge(126,246).
edge(126,247).
edge(126,249).
edge(126,250).
edge(127,128).
edge(127,129).
edge(127,130).
edge(127,131).
edge(127,133).
edge(127,134).
edge(127,135).
edge(127,136).
edge(127,137).
edge(127,138).
edge(127,139).
edge(127,140).
edge(127,141).
edge(127,142).
edge(127,143).
edge(127,144).
edge(127,145).
edge(127,146).
edge(127,147).
edge(127,148).
edge(127,149).
edge(127,150).
edge(127,151).
edge(127,152).
edge(127,153).
edge(127,154).
edge(127,155).
edge(127,156).
edge(127,157).
edge(127,158).
edge(127,159).
edge(127,160).
edge(127,161).
edge(127,162).
edge(127,163).
edge(127,165).
edge(127,166).
edge(127,168).
edge(127,169).
edge(127,170).
edge(127,173).
edge(127,174).
edge(127,175).
edge(127,177).
edge(127,180).
edge(127,181).
edge(127,183).
edge(127,184).
edge(127,185).
edge(127,186).
edge(127,187).
edge(127,189).
edge(127,190).
edge(127,192).
edge(127,193).
edge(127,194).
edge(127,197).
edge(127,198).
edge(127,199).
edge(127,200).
edge(127,202).
edge(127,203).
edge(127,204).
edge(127,206).
edge(127,207).
edge(127,208).
edge(127,209).
edge(127,210).
edge(127,211).
edge(127,214).
edge(127,215).
edge(127,216).
edge(127,217).
edge(127,219).
edge(127,220).
edge(127,221).
edge(127,222).
edge(127,224).
edge(127,225).
edge(127,226).
edge(127,227).
edge(127,228).
edge(127,229).
edge(127,231).
edge(127,232).
edge(127,233).
edge(127,234).
edge(127,235).
edge(127,237).
edge(127,238).
edge(127,241).
edge(127,243).
edge(127,244).
edge(127,245).
edge(127,247).
edge(127,248).
edge(127,249).
edge(128,130).
edge(128,131).
edge(128,132).
edge(128,133).
edge(128,134).
edge(128,135).
edge(128,138).
edge(128,139).
edge(128,140).
edge(128,142).
edge(128,143).
edge(128,144).
edge(128,145).
edge(128,147).
edge(128,148).
edge(128,150).
edge(128,151).
edge(128,153).
edge(128,154).
edge(128,157).
edge(128,159).
edge(128,162).
edge(128,163).
edge(128,165).
edge(128,167).
edge(128,169).
edge(128,171).
edge(128,172).
edge(128,173).
edge(128,176).
edge(128,177).
edge(128,178).
edge(128,179).
edge(128,180).
edge(128,181).
edge(128,182).
edge(128,186).
edge(128,187).
edge(128,188).
edge(128,189).
edge(128,191).
edge(128,193).
edge(128,194).
edge(128,196).
edge(128,198).
edge(128,199).
edge(128,200).
edge(128,202).
edge(128,204).
edge(128,205).
edge(128,206).
edge(128,208).
edge(128,209).
edge(128,211).
edge(128,212).
edge(128,213).
edge(128,217).
edge(128,219).
edge(128,220).
edge(128,221).
edge(128,222).
edge(128,224).
edge(128,225).
edge(128,226).
edge(128,227).
edge(128,228).
edge(128,229).
edge(128,233).
edge(128,234).
edge(128,235).
edge(128,236).
edge(128,238).
edge(128,240).
edge(128,242).
edge(128,243).
edge(128,244).
edge(128,245).
edge(128,246).
edge(128,247).
edge(129,130).
edge(129,131).
edge(129,133).
edge(129,135).
edge(129,136).
edge(129,137).
edge(129,140).
edge(129,141).
edge(129,145).
edge(129,146).
edge(129,147).
edge(129,148).
edge(129,149).
edge(129,150).
edge(129,152).
edge(129,155).
edge(129,158).
edge(129,159).
edge(129,160).
edge(129,161).
edge(129,162).
edge(129,163).
edge(129,165).
edge(129,166).
edge(129,168).
edge(129,169).
edge(129,173).
edge(129,174).
edge(129,175).
edge(129,177).
edge(129,179).
edge(129,184).
edge(129,187).
edge(129,190).
edge(129,192).
edge(129,194).
edge(129,196).
edge(129,197).
edge(129,199).
edge(129,200).
edge(129,201).
edge(129,202).
edge(129,203).
edge(129,204).
edge(129,207).
edge(129,210).
edge(129,211).
edge(129,215).
edge(129,216).
edge(129,217).
edge(129,218).
edge(129,219).
edge(129,220).
edge(129,221).
edge(129,223).
edge(129,224).
edge(129,225).
edge(129,226).
edge(129,227).
edge(129,230).
edge(129,232).
edge(129,233).
edge(129,234).
edge(129,235).
edge(129,236).
edge(129,237).
edge(129,238).
edge(129,239).
edge(129,240).
edge(129,241).
edge(129,242).
edge(129,243).
edge(129,245).
edge(129,249).
edge(129,250).
edge(130,131).
edge(130,132).
edge(130,133).
edge(130,134).
edge(130,135).
edge(130,139).
edge(130,140).
edge(130,141).
edge(130,142).
edge(130,143).
edge(130,144).
edge(130,145).
edge(130,146).
edge(130,147).
edge(130,148).
edge(130,149).
edge(130,150).
edge(130,152).
edge(130,153).
edge(130,154).
edge(130,156).
edge(130,157).
edge(130,159).
edge(130,160).
edge(130,161).
edge(130,162).
edge(130,163).
edge(130,164).
edge(130,165).
edge(130,166).
edge(130,167).
edge(130,168).
edge(130,169).
edge(130,170).
edge(130,172).
edge(130,174).
edge(130,175).
edge(130,177).
edge(130,178).
edge(130,180).
edge(130,181).
edge(130,182).
edge(130,183).
edge(130,184).
edge(130,185).
edge(130,186).
edge(130,187).
edge(130,188).
edge(130,189).
edge(130,190).
edge(130,191).
edge(130,192).
edge(130,194).
edge(130,195).
edge(130,197).
edge(130,198).
edge(130,199).
edge(130,201).
edge(130,202).
edge(130,203).
edge(130,204).
edge(130,205).
edge(130,206).
edge(130,207).
edge(130,208).
edge(130,209).
edge(130,211).
edge(130,212).
edge(130,213).
edge(130,214).
edge(130,215).
edge(130,216).
edge(130,217).
edge(130,219).
edge(130,220).
edge(130,221).
edge(130,223).
edge(130,224).
edge(130,225).
edge(130,226).
edge(130,227).
edge(130,228).
edge(130,229).
edge(130,230).
edge(130,231).
edge(130,232).
edge(130,233).
edge(130,234).
edge(130,235).
edge(130,236).
edge(130,237).
edge(130,238).
edge(130,239).
edge(130,240).
edge(130,241).
edge(130,242).
edge(130,244).
edge(130,245).
edge(130,246).
edge(130,247).
edge(130,248).
edge(130,249).
edge(131,132).
edge(131,133).
edge(131,134).
edge(131,135).
edge(131,136).
edge(131,137).
edge(131,139).
edge(131,140).
edge(131,141).
edge(131,142).
edge(131,143).
edge(131,144).
edge(131,147).
edge(131,148).
edge(131,149).
edge(131,150).
edge(131,152).
edge(131,153).
edge(131,155).
edge(131,157).
edge(131,159).
edge(131,160).
edge(131,162).
edge(131,163).
edge(131,165).
edge(131,167).
edge(131,168).
edge(131,169).
edge(131,170).
edge(131,173).
edge(131,175).
edge(131,177).
edge(131,178).
edge(131,179).
edge(131,181).
edge(131,182).
edge(131,183).
edge(131,184).
edge(131,185).
edge(131,186).
edge(131,187).
edge(131,188).
edge(131,189).
edge(131,190).
edge(131,191).
edge(131,192).
edge(131,194).
edge(131,195).
edge(131,196).
edge(131,197).
edge(131,199).
edge(131,200).
edge(131,201).
edge(131,202).
edge(131,203).
edge(131,204).
edge(131,205).
edge(131,207).
edge(131,209).
edge(131,210).
edge(131,211).
edge(131,213).
edge(131,215).
edge(131,216).
edge(131,217).
edge(131,218).
edge(131,219).
edge(131,221).
edge(131,222).
edge(131,223).
edge(131,224).
edge(131,225).
edge(131,226).
edge(131,227).
edge(131,228).
edge(131,229).
edge(131,230).
edge(131,231).
edge(131,233).
edge(131,235).
edge(131,237).
edge(131,238).
edge(131,240).
edge(131,241).
edge(131,242).
edge(131,243).
edge(131,244).
edge(131,245).
edge(131,246).
edge(131,247).
edge(131,248).
edge(132,133).
edge(132,134).
edge(132,135).
edge(132,137).
edge(132,138).
edge(132,139).
edge(132,140).
edge(132,142).
edge(132,144).
edge(132,147).
edge(132,148).
edge(132,151).
edge(132,153).
edge(132,156).
edge(132,159).
edge(132,163).
edge(132,164).
edge(132,165).
edge(132,166).
edge(132,170).
edge(132,174).
edge(132,175).
edge(132,176).
edge(132,179).
edge(132,181).
edge(132,182).
edge(132,184).
edge(132,185).
edge(132,186).
edge(132,189).
edge(132,190).
edge(132,193).
edge(132,194).
edge(132,196).
edge(132,199).
edge(132,201).
edge(132,202).
edge(132,204).
edge(132,205).
edge(132,206).
edge(132,207).
edge(132,209).
edge(132,210).
edge(132,213).
edge(132,214).
edge(132,215).
edge(132,216).
edge(132,218).
edge(132,221).
edge(132,223).
edge(132,224).
edge(132,227).
edge(132,230).
edge(132,232).
edge(132,233).
edge(132,234).
edge(132,235).
edge(132,236).
edge(132,237).
edge(132,238).
edge(132,239).
edge(132,240).
edge(132,241).
edge(132,242).
edge(132,243).
edge(132,244).
edge(132,245).
edge(132,248).
edge(132,250).
edge(133,134).
edge(133,140).
edge(133,142).
edge(133,143).
edge(133,144).
edge(133,145).
edge(133,146).
edge(133,148).
edge(133,150).
edge(133,151).
edge(133,152).
edge(133,153).
edge(133,154).
edge(133,155).
edge(133,156).
edge(133,157).
edge(133,159).
edge(133,162).
edge(133,163).
edge(133,165).
edge(133,166).
edge(133,168).
edge(133,169).
edge(133,173).
edge(133,176).
edge(133,177).
edge(133,179).
edge(133,180).
edge(133,181).
edge(133,182).
edge(133,183).
edge(133,186).
edge(133,187).
edge(133,188).
edge(133,189).
edge(133,191).
edge(133,192).
edge(133,193).
edge(133,194).
edge(133,196).
edge(133,199).
edge(133,200).
edge(133,202).
edge(133,203).
edge(133,204).
edge(133,206).
edge(133,207).
edge(133,208).
edge(133,209).
edge(133,211).
edge(133,212).
edge(133,213).
edge(133,219).
edge(133,220).
edge(133,221).
edge(133,224).
edge(133,226).
edge(133,227).
edge(133,231).
edge(133,232).
edge(133,233).
edge(133,234).
edge(133,235).
edge(133,236).
edge(133,238).
edge(133,240).
edge(133,242).
edge(133,244).
edge(133,245).
edge(133,248).
edge(134,137).
edge(134,138).
edge(134,139).
edge(134,140).
edge(134,141).
edge(134,142).
edge(134,144).
edge(134,145).
edge(134,146).
edge(134,148).
edge(134,149).
edge(134,150).
edge(134,152).
edge(134,153).
edge(134,154).
edge(134,155).
edge(134,156).
edge(134,157).
edge(134,159).
edge(134,160).
edge(134,162).
edge(134,163).
edge(134,164).
edge(134,165).
edge(134,166).
edge(134,167).
edge(134,168).
edge(134,169).
edge(134,170).
edge(134,171).
edge(134,172).
edge(134,174).
edge(134,175).
edge(134,176).
edge(134,177).
edge(134,178).
edge(134,179).
edge(134,180).
edge(134,181).
edge(134,182).
edge(134,183).
edge(134,184).
edge(134,185).
edge(134,186).
edge(134,188).
edge(134,190).
edge(134,191).
edge(134,192).
edge(134,194).
edge(134,195).
edge(134,198).
edge(134,199).
edge(134,200).
edge(134,201).
edge(134,202).
edge(134,203).
edge(134,204).
edge(134,205).
edge(134,206).
edge(134,207).
edge(134,208).
edge(134,209).
edge(134,210).
edge(134,211).
edge(134,213).
edge(134,215).
edge(134,217).
edge(134,218).
edge(134,219).
edge(134,222).
edge(134,223).
edge(134,224).
edge(134,226).
edge(134,229).
edge(134,231).
edge(134,232).
edge(134,234).
edge(134,235).
edge(134,236).
edge(134,237).
edge(134,238).
edge(134,240).
edge(134,241).
edge(134,242).
edge(134,244).
edge(134,245).
edge(134,246).
edge(134,247).
edge(134,249).
edge(134,250).
edge(135,138).
edge(135,139).
edge(135,140).
edge(135,142).
edge(135,145).
edge(135,147).
edge(135,149).
edge(135,150).
edge(135,151).
edge(135,154).
edge(135,156).
edge(135,157).
edge(135,159).
edge(135,160).
edge(135,161).
edge(135,162).
edge(135,163).
edge(135,166).
edge(135,169).
edge(135,173).
edge(135,174).
edge(135,175).
edge(135,176).
edge(135,177).
edge(135,178).
edge(135,179).
edge(135,181).
edge(135,183).
edge(135,185).
edge(135,186).
edge(135,191).
edge(135,192).
edge(135,193).
edge(135,195).
edge(135,197).
edge(135,198).
edge(135,199).
edge(135,200).
edge(135,201).
edge(135,203).
edge(135,204).
edge(135,206).
edge(135,208).
edge(135,209).
edge(135,210).
edge(135,211).
edge(135,216).
edge(135,217).
edge(135,218).
edge(135,219).
edge(135,222).
edge(135,225).
edge(135,226).
edge(135,227).
edge(135,228).
edge(135,229).
edge(135,230).
edge(135,231).
edge(135,232).
edge(135,233).
edge(135,234).
edge(135,235).
edge(135,236).
edge(135,237).
edge(135,238).
edge(135,239).
edge(135,241).
edge(135,242).
edge(135,243).
edge(135,245).
edge(135,246).
edge(135,248).
edge(135,249).
edge(135,250).
edge(136,137).
edge(136,138).
edge(136,140).
edge(136,141).
edge(136,142).
edge(136,143).
edge(136,145).
edge(136,146).
edge(136,147).
edge(136,148).
edge(136,149).
edge(136,150).
edge(136,153).
edge(136,154).
edge(136,157).
edge(136,158).
edge(136,160).
edge(136,162).
edge(136,163).
edge(136,165).
edge(136,166).
edge(136,167).
edge(136,168).
edge(136,169).
edge(136,170).
edge(136,176).
edge(136,177).
edge(136,178).
edge(136,181).
edge(136,183).
edge(136,185).
edge(136,186).
edge(136,188).
edge(136,189).
edge(136,190).
edge(136,191).
edge(136,192).
edge(136,194).
edge(136,196).
edge(136,201).
edge(136,202).
edge(136,205).
edge(136,207).
edge(136,209).
edge(136,210).
edge(136,213).
edge(136,214).
edge(136,215).
edge(136,216).
edge(136,217).
edge(136,219).
edge(136,221).
edge(136,222).
edge(136,225).
edge(136,226).
edge(136,227).
edge(136,230).
edge(136,231).
edge(136,232).
edge(136,233).
edge(136,234).
edge(136,235).
edge(136,239).
edge(136,240).
edge(136,243).
edge(136,244).
edge(136,247).
edge(136,248).
edge(136,249).
edge(136,250).
edge(137,139).
edge(137,141).
edge(137,142).
edge(137,143).
edge(137,145).
edge(137,146).
edge(137,148).
edge(137,149).
edge(137,151).
edge(137,153).
edge(137,154).
edge(137,155).
edge(137,157).
edge(137,160).
edge(137,161).
edge(137,162).
edge(137,163).
edge(137,165).
edge(137,166).
edge(137,167).
edge(137,168).
edge(137,170).
edge(137,171).
edge(137,173).
edge(137,177).
edge(137,180).
edge(137,182).
edge(137,186).
edge(137,187).
edge(137,188).
edge(137,190).
edge(137,194).
edge(137,197).
edge(137,198).
edge(137,199).
edge(137,200).
edge(137,202).
edge(137,204).
edge(137,205).
edge(137,206).
edge(137,209).
edge(137,211).
edge(137,212).
edge(137,215).
edge(137,218).
edge(137,220).
edge(137,222).
edge(137,224).
edge(137,225).
edge(137,226).
edge(137,227).
edge(137,228).
edge(137,230).
edge(137,231).
edge(137,232).
edge(137,236).
edge(137,238).
edge(137,239).
edge(137,244).
edge(137,245).
edge(137,246).
edge(137,247).
edge(137,248).
edge(137,249).
edge(137,250).
edge(138,139).
edge(138,140).
edge(138,141).
edge(138,143).
edge(138,144).
edge(138,145).
edge(138,146).
edge(138,147).
edge(138,148).
edge(138,149).
edge(138,152).
edge(138,153).
edge(138,154).
edge(138,155).
edge(138,156).
edge(138,157).
edge(138,158).
edge(138,159).
edge(138,160).
edge(138,161).
edge(138,162).
edge(138,163).
edge(138,164).
edge(138,165).
edge(138,166).
edge(138,167).
edge(138,168).
edge(138,170).
edge(138,171).
edge(138,172).
edge(138,173).
edge(138,174).
edge(138,176).
edge(138,177).
edge(138,178).
edge(138,179).
edge(138,180).
edge(138,181).
edge(138,182).
edge(138,183).
edge(138,184).
edge(138,185).
edge(138,188).
edge(138,189).
edge(138,190).
edge(138,191).
edge(138,192).
edge(138,193).
edge(138,194).
edge(138,195).
edge(138,196).
edge(138,197).
edge(138,198).
edge(138,200).
edge(138,203).
edge(138,204).
edge(138,205).
edge(138,207).
edge(138,208).
edge(138,209).
edge(138,210).
edge(138,211).
edge(138,212).
edge(138,213).
edge(138,214).
edge(138,215).
edge(138,216).
edge(138,217).
edge(138,218).
edge(138,219).
edge(138,220).
edge(138,223).
edge(138,225).
edge(138,226).
edge(138,227).
edge(138,228).
edge(138,229).
edge(138,230).
edge(138,231).
edge(138,232).
edge(138,233).
edge(138,234).
edge(138,237).
edge(138,238).
edge(138,242).
edge(138,243).
edge(138,244).
edge(138,245).
edge(138,246).
edge(138,248).
edge(138,249).
edge(139,141).
edge(139,142).
edge(139,144).
edge(139,145).
edge(139,146).
edge(139,147).
edge(139,148).
edge(139,149).
edge(139,150).
edge(139,152).
edge(139,153).
edge(139,154).
edge(139,155).
edge(139,156).
edge(139,158).
edge(139,159).
edge(139,162).
edge(139,163).
edge(139,164).
edge(139,165).
edge(139,167).
edge(139,168).
edge(139,169).
edge(139,171).
edge(139,172).
edge(139,173).
edge(139,176).
edge(139,177).
edge(139,178).
edge(139,179).
edge(139,180).
edge(139,181).
edge(139,182).
edge(139,183).
edge(139,184).
edge(139,185).
edge(139,186).
edge(139,187).
edge(139,188).
edge(139,190).
edge(139,191).
edge(139,192).
edge(139,193).
edge(139,194).
edge(139,195).
edge(139,198).
edge(139,199).
edge(139,201).
edge(139,202).
edge(139,203).
edge(139,205).
edge(139,206).
edge(139,207).
edge(139,209).
edge(139,210).
edge(139,214).
edge(139,215).
edge(139,217).
edge(139,218).
edge(139,219).
edge(139,220).
edge(139,221).
edge(139,223).
edge(139,226).
edge(139,228).
edge(139,229).
edge(139,231).
edge(139,232).
edge(139,234).
edge(139,236).
edge(139,238).
edge(139,239).
edge(139,240).
edge(139,242).
edge(139,243).
edge(139,244).
edge(139,245).
edge(139,247).
edge(139,248).
edge(139,250).
edge(140,141).
edge(140,142).
edge(140,143).
edge(140,148).
edge(140,149).
edge(140,150).
edge(140,151).
edge(140,152).
edge(140,153).
edge(140,154).
edge(140,156).
edge(140,157).
edge(140,160).
edge(140,161).
edge(140,162).
edge(140,163).
edge(140,164).
edge(140,165).
edge(140,166).
edge(140,168).
edge(140,172).
edge(140,173).
edge(140,174).
edge(140,176).
edge(140,177).
edge(140,178).
edge(140,179).
edge(140,180).
edge(140,183).
edge(140,184).
edge(140,185).
edge(140,186).
edge(140,189).
edge(140,190).
edge(140,191).
edge(140,195).
edge(140,197).
edge(140,198).
edge(140,199).
edge(140,200).
edge(140,201).
edge(140,203).
edge(140,204).
edge(140,205).
edge(140,207).
edge(140,208).
edge(140,212).
edge(140,213).
edge(140,214).
edge(140,216).
edge(140,217).
edge(140,218).
edge(140,219).
edge(140,220).
edge(140,221).
edge(140,222).
edge(140,223).
edge(140,224).
edge(140,225).
edge(140,226).
edge(140,227).
edge(140,228).
edge(140,230).
edge(140,231).
edge(140,232).
edge(140,233).
edge(140,234).
edge(140,235).
edge(140,239).
edge(140,241).
edge(140,242).
edge(140,243).
edge(140,245).
edge(140,247).
edge(140,248).
edge(140,250).
edge(141,142).
edge(141,143).
edge(141,144).
edge(141,147).
edge(141,148).
edge(141,149).
edge(141,152).
edge(141,153).
edge(141,154).
edge(141,155).
edge(141,157).
edge(141,158).
edge(141,159).
edge(141,160).
edge(141,162).
edge(141,163).
edge(141,164).
edge(141,165).
edge(141,166).
edge(141,168).
edge(141,169).
edge(141,170).
edge(141,171).
edge(141,174).
edge(141,175).
edge(141,176).
edge(141,177).
edge(141,179).
edge(141,181).
edge(141,182).
edge(141,183).
edge(141,184).
edge(141,185).
edge(141,187).
edge(141,188).
edge(141,191).
edge(141,192).
edge(141,193).
edge(141,194).
edge(141,199).
edge(141,200).
edge(141,202).
edge(141,203).
edge(141,204).
edge(141,205).
edge(141,207).
edge(141,211).
edge(141,212).
edge(141,214).
edge(141,215).
edge(141,216).
edge(141,217).
edge(141,218).
edge(141,219).
edge(141,221).
edge(141,222).
edge(141,223).
edge(141,225).
edge(141,226).
edge(141,227).
edge(141,229).
edge(141,232).
edge(141,233).
edge(141,234).
edge(141,235).
edge(141,236).
edge(141,237).
edge(141,239).
edge(141,241).
edge(141,242).
edge(141,243).
edge(141,245).
edge(141,246).
edge(141,248).
edge(141,249).
edge(141,250).
edge(142,144).
edge(142,147).
edge(142,148).
edge(142,149).
edge(142,150).
edge(142,151).
edge(142,152).
edge(142,157).
edge(142,158).
edge(142,160).
edge(142,161).
edge(142,162).
edge(142,163).
edge(142,164).
edge(142,165).
edge(142,166).
edge(142,168).
edge(142,169).
edge(142,170).
edge(142,171).
edge(142,172).
edge(142,175).
edge(142,177).
edge(142,180).
edge(142,181).
edge(142,183).
edge(142,184).
edge(142,185).
edge(142,186).
edge(142,188).
edge(142,189).
edge(142,192).
edge(142,193).
edge(142,194).
edge(142,195).
edge(142,198).
edge(142,199).
edge(142,200).
edge(142,201).
edge(142,202).
edge(142,203).
edge(142,204).
edge(142,206).
edge(142,208).
edge(142,209).
edge(142,211).
edge(142,212).
edge(142,213).
edge(142,216).
edge(142,217).
edge(142,219).
edge(142,223).
edge(142,224).
edge(142,225).
edge(142,226).
edge(142,229).
edge(142,230).
edge(142,231).
edge(142,233).
edge(142,234).
edge(142,235).
edge(142,238).
edge(142,241).
edge(142,242).
edge(142,243).
edge(142,244).
edge(142,249).
edge(142,250).
edge(143,144).
edge(143,145).
edge(143,146).
edge(143,147).
edge(143,148).
edge(143,152).
edge(143,153).
edge(143,154).
edge(143,155).
edge(143,156).
edge(143,158).
edge(143,162).
edge(143,164).
edge(143,166).
edge(143,167).
edge(143,168).
edge(143,169).
edge(143,171).
edge(143,174).
edge(143,175).
edge(143,176).
edge(143,178).
edge(143,180).
edge(143,181).
edge(143,183).
edge(143,185).
edge(143,186).
edge(143,189).
edge(143,190).
edge(143,191).
edge(143,192).
edge(143,193).
edge(143,197).
edge(143,198).
edge(143,199).
edge(143,200).
edge(143,201).
edge(143,202).
edge(143,204).
edge(143,205).
edge(143,210).
edge(143,212).
edge(143,213).
edge(143,214).
edge(143,217).
edge(143,218).
edge(143,220).
edge(143,221).
edge(143,223).
edge(143,224).
edge(143,225).
edge(143,226).
edge(143,232).
edge(143,235).
edge(143,238).
edge(143,242).
edge(143,243).
edge(143,244).
edge(143,247).
edge(143,250).
edge(144,145).
edge(144,146).
edge(144,148).
edge(144,150).
edge(144,153).
edge(144,154).
edge(144,156).
edge(144,157).
edge(144,158).
edge(144,159).
edge(144,160).
edge(144,161).
edge(144,162).
edge(144,163).
edge(144,164).
edge(144,165).
edge(144,166).
edge(144,167).
edge(144,168).
edge(144,169).
edge(144,170).
edge(144,171).
edge(144,172).
edge(144,173).
edge(144,174).
edge(144,175).
edge(144,176).
edge(144,177).
edge(144,180).
edge(144,181).
edge(144,184).
edge(144,185).
edge(144,186).
edge(144,187).
edge(144,188).
edge(144,189).
edge(144,190).
edge(144,191).
edge(144,194).
edge(144,196).
edge(144,197).
edge(144,198).
edge(144,199).
edge(144,200).
edge(144,201).
edge(144,202).
edge(144,203).
edge(144,205).
edge(144,206).
edge(144,208).
edge(144,209).
edge(144,210).
edge(144,211).
edge(144,212).
edge(144,213).
edge(144,216).
edge(144,219).
edge(144,221).
edge(144,222).
edge(144,223).
edge(144,224).
edge(144,225).
edge(144,227).
edge(144,228).
edge(144,231).
edge(144,232).
edge(144,233).
edge(144,234).
edge(144,235).
edge(144,237).
edge(144,238).
edge(144,239).
edge(144,240).
edge(144,241).
edge(144,242).
edge(144,243).
edge(144,244).
edge(144,245).
edge(144,246).
edge(144,247).
edge(144,248).
edge(144,249).
edge(145,147).
edge(145,148).
edge(145,149).
edge(145,150).
edge(145,156).
edge(145,157).
edge(145,158).
edge(145,161).
edge(145,162).
edge(145,163).
edge(145,164).
edge(145,165).
edge(145,166).
edge(145,167).
edge(145,171).
edge(145,178).
edge(145,179).
edge(145,182).
edge(145,185).
edge(145,187).
edge(145,189).
edge(145,192).
edge(145,195).
edge(145,196).
edge(145,199).
edge(145,200).
edge(145,201).
edge(145,202).
edge(145,203).
edge(145,204).
edge(145,206).
edge(145,208).
edge(145,211).
edge(145,213).
edge(145,214).
edge(145,215).
edge(145,216).
edge(145,219).
edge(145,220).
edge(145,225).
edge(145,226).
edge(145,230).
edge(145,231).
edge(145,232).
edge(145,233).
edge(145,234).
edge(145,236).
edge(145,237).
edge(145,239).
edge(145,240).
edge(145,241).
edge(145,244).
edge(145,246).
edge(145,248).
edge(145,250).
edge(146,147).
edge(146,148).
edge(146,149).
edge(146,151).
edge(146,152).
edge(146,153).
edge(146,154).
edge(146,155).
edge(146,156).
edge(146,158).
edge(146,159).
edge(146,162).
edge(146,164).
edge(146,165).
edge(146,166).
edge(146,167).
edge(146,169).
edge(146,170).
edge(146,171).
edge(146,172).
edge(146,173).
edge(146,174).
edge(146,175).
edge(146,176).
edge(146,177).
edge(146,178).
edge(146,179).
edge(146,180).
edge(146,181).
edge(146,182).
edge(146,184).
edge(146,185).
edge(146,186).
edge(146,187).
edge(146,188).
edge(146,189).
edge(146,190).
edge(146,193).
edge(146,194).
edge(146,196).
edge(146,197).
edge(146,202).
edge(146,203).
edge(146,205).
edge(146,206).
edge(146,207).
edge(146,210).
edge(146,211).
edge(146,213).
edge(146,215).
edge(146,216).
edge(146,217).
edge(146,219).
edge(146,220).
edge(146,221).
edge(146,223).
edge(146,227).
edge(146,228).
edge(146,229).
edge(146,232).
edge(146,235).
edge(146,236).
edge(146,237).
edge(146,238).
edge(146,239).
edge(146,242).
edge(146,243).
edge(146,244).
edge(146,245).
edge(146,246).
edge(146,249).
edge(146,250).
edge(147,149).
edge(147,150).
edge(147,153).
edge(147,155).
edge(147,157).
edge(147,159).
edge(147,160).
edge(147,163).
edge(147,164).
edge(147,165).
edge(147,167).
edge(147,168).
edge(147,169).
edge(147,170).
edge(147,171).
edge(147,172).
edge(147,173).
edge(147,175).
edge(147,176).
edge(147,177).
edge(147,178).
edge(147,179).
edge(147,181).
edge(147,182).
edge(147,183).
edge(147,184).
edge(147,185).
edge(147,186).
edge(147,188).
edge(147,191).
edge(147,193).
edge(147,194).
edge(147,195).
edge(147,197).
edge(147,198).
edge(147,199).
edge(147,200).
edge(147,201).
edge(147,202).
edge(147,204).
edge(147,207).
edge(147,211).
edge(147,213).
edge(147,214).
edge(147,216).
edge(147,217).
edge(147,218).
edge(147,219).
edge(147,220).
edge(147,221).
edge(147,223).
edge(147,224).
edge(147,225).
edge(147,228).
edge(147,229).
edge(147,230).
edge(147,231).
edge(147,232).
edge(147,233).
edge(147,235).
edge(147,240).
edge(147,241).
edge(147,242).
edge(147,243).
edge(147,246).
edge(147,248).
edge(147,250).
edge(148,149).
edge(148,150).
edge(148,151).
edge(148,152).
edge(148,155).
edge(148,156).
edge(148,157).
edge(148,159).
edge(148,162).
edge(148,163).
edge(148,164).
edge(148,165).
edge(148,166).
edge(148,167).
edge(148,168).
edge(148,169).
edge(148,171).
edge(148,172).
edge(148,173).
edge(148,175).
edge(148,176).
edge(148,177).
edge(148,179).
edge(148,180).
edge(148,181).
edge(148,182).
edge(148,183).
edge(148,185).
edge(148,186).
edge(148,187).
edge(148,188).
edge(148,190).
edge(148,191).
edge(148,193).
edge(148,194).
edge(148,196).
edge(148,199).
edge(148,200).
edge(148,201).
edge(148,202).
edge(148,203).
edge(148,204).
edge(148,206).
edge(148,207).
edge(148,208).
edge(148,210).
edge(148,211).
edge(148,213).
edge(148,217).
edge(148,218).
edge(148,219).
edge(148,223).
edge(148,224).
edge(148,225).
edge(148,226).
edge(148,228).
edge(148,229).
edge(148,231).
edge(148,232).
edge(148,234).
edge(148,235).
edge(148,236).
edge(148,237).
edge(148,238).
edge(148,241).
edge(148,242).
edge(148,243).
edge(148,244).
edge(148,245).
edge(148,246).
edge(148,250).
edge(149,152).
edge(149,153).
edge(149,157).
edge(149,158).
edge(149,159).
edge(149,161).
edge(149,162).
edge(149,163).
edge(149,164).
edge(149,165).
edge(149,166).
edge(149,167).
edge(149,168).
edge(149,169).
edge(149,170).
edge(149,171).
edge(149,172).
edge(149,173).
edge(149,175).
edge(149,176).
edge(149,177).
edge(149,179).
edge(149,180).
edge(149,181).
edge(149,182).
edge(149,183).
edge(149,184).
edge(149,185).
edge(149,187).
edge(149,188).
edge(149,189).
edge(149,190).
edge(149,191).
edge(149,192).
edge(149,195).
edge(149,198).
edge(149,199).
edge(149,202).
edge(149,203).
edge(149,204).
edge(149,205).
edge(149,207).
edge(149,209).
edge(149,211).
edge(149,212).
edge(149,213).
edge(149,214).
edge(149,216).
edge(149,217).
edge(149,219).
edge(149,221).
edge(149,223).
edge(149,224).
edge(149,226).
edge(149,227).
edge(149,229).
edge(149,231).
edge(149,232).
edge(149,235).
edge(149,236).
edge(149,237).
edge(149,244).
edge(149,245).
edge(149,247).
edge(149,248).
edge(149,249).
edge(150,152).
edge(150,156).
edge(150,157).
edge(150,158).
edge(150,159).
edge(150,160).
edge(150,162).
edge(150,163).
edge(150,164).
edge(150,165).
edge(150,167).
edge(150,169).
edge(150,170).
edge(150,173).
edge(150,174).
edge(150,177).
edge(150,178).
edge(150,179).
edge(150,180).
edge(150,181).
edge(150,183).
edge(150,185).
edge(150,186).
edge(150,187).
edge(150,188).
edge(150,189).
edge(150,190).
edge(150,191).
edge(150,193).
edge(150,194).
edge(150,195).
edge(150,198).
edge(150,199).
edge(150,201).
edge(150,202).
edge(150,204).
edge(150,205).
edge(150,206).
edge(150,207).
edge(150,208).
edge(150,209).
edge(150,210).
edge(150,211).
edge(150,212).
edge(150,213).
edge(150,215).
edge(150,218).
edge(150,219).
edge(150,222).
edge(150,223).
edge(150,224).
edge(150,225).
edge(150,226).
edge(150,227).
edge(150,228).
edge(150,229).
edge(150,231).
edge(150,232).
edge(150,233).
edge(150,234).
edge(150,235).
edge(150,236).
edge(150,237).
edge(150,238).
edge(150,239).
edge(150,241).
edge(150,242).
edge(150,243).
edge(150,244).
edge(150,245).
edge(150,246).
edge(150,248).
edge(150,249).
edge(150,250).
edge(151,155).
edge(151,156).
edge(151,157).
edge(151,159).
edge(151,161).
edge(151,162).
edge(151,163).
edge(151,164).
edge(151,165).
edge(151,166).
edge(151,167).
edge(151,168).
edge(151,171).
edge(151,172).
edge(151,173).
edge(151,175).
edge(151,177).
edge(151,179).
edge(151,180).
edge(151,181).
edge(151,183).
edge(151,184).
edge(151,185).
edge(151,186).
edge(151,189).
edge(151,190).
edge(151,191).
edge(151,192).
edge(151,193).
edge(151,195).
edge(151,196).
edge(151,197).
edge(151,198).
edge(151,199).
edge(151,200).
edge(151,202).
edge(151,203).
edge(151,204).
edge(151,205).
edge(151,207).
edge(151,209).
edge(151,210).
edge(151,211).
edge(151,213).
edge(151,214).
edge(151,221).
edge(151,222).
edge(151,223).
edge(151,230).
edge(151,231).
edge(151,233).
edge(151,234).
edge(151,235).
edge(151,236).
edge(151,239).
edge(151,240).
edge(151,241).
edge(151,243).
edge(151,246).
edge(151,247).
edge(151,248).
edge(152,153).
edge(152,154).
edge(152,156).
edge(152,157).
edge(152,159).
edge(152,160).
edge(152,164).
edge(152,165).
edge(152,166).
edge(152,168).
edge(152,169).
edge(152,170).
edge(152,171).
edge(152,174).
edge(152,175).
edge(152,180).
edge(152,182).
edge(152,183).
edge(152,184).
edge(152,185).
edge(152,186).
edge(152,187).
edge(152,189).
edge(152,191).
edge(152,192).
edge(152,193).
edge(152,195).
edge(152,196).
edge(152,197).
edge(152,199).
edge(152,200).
edge(152,203).
edge(152,204).
edge(152,205).
edge(152,211).
edge(152,212).
edge(152,213).
edge(152,214).
edge(152,215).
edge(152,218).
edge(152,219).
edge(152,223).
edge(152,228).
edge(152,229).
edge(152,230).
edge(152,231).
edge(152,232).
edge(152,233).
edge(152,234).
edge(152,235).
edge(152,236).
edge(152,237).
edge(152,239).
edge(152,241).
edge(152,242).
edge(152,243).
edge(152,246).
edge(152,247).
edge(152,250).
edge(153,154).
edge(153,157).
edge(153,158).
edge(153,159).
edge(153,160).
edge(153,163).
edge(153,165).
edge(153,167).
edge(153,168).
edge(153,169).
edge(153,170).
edge(153,171).
edge(153,172).
edge(153,173).
edge(153,175).
edge(153,178).
edge(153,181).
edge(153,182).
edge(153,184).
edge(153,185).
edge(153,186).
edge(153,189).
edge(153,191).
edge(153,192).
edge(153,193).
edge(153,194).
edge(153,196).
edge(153,197).
edge(153,199).
edge(153,202).
edge(153,204).
edge(153,205).
edge(153,206).
edge(153,208).
edge(153,210).
edge(153,211).
edge(153,212).
edge(153,213).
edge(153,215).
edge(153,218).
edge(153,221).
edge(153,223).
edge(153,225).
edge(153,226).
edge(153,229).
edge(153,230).
edge(153,234).
edge(153,235).
edge(153,236).
edge(153,237).
edge(153,238).
edge(153,240).
edge(153,241).
edge(153,242).
edge(153,244).
edge(153,246).
edge(153,248).
edge(153,250).
edge(154,155).
edge(154,157).
edge(154,161).
edge(154,164).
edge(154,165).
edge(154,169).
edge(154,170).
edge(154,172).
edge(154,173).
edge(154,174).
edge(154,175).
edge(154,177).
edge(154,178).
edge(154,182).
edge(154,183).
edge(154,185).
edge(154,186).
edge(154,187).
edge(154,188).
edge(154,189).
edge(154,190).
edge(154,191).
edge(154,192).
edge(154,194).
edge(154,195).
edge(154,196).
edge(154,197).
edge(154,198).
edge(154,200).
edge(154,201).
edge(154,202).
edge(154,204).
edge(154,205).
edge(154,207).
edge(154,209).
edge(154,210).
edge(154,213).
edge(154,214).
edge(154,216).
edge(154,217).
edge(154,218).
edge(154,221).
edge(154,222).
edge(154,223).
edge(154,224).
edge(154,226).
edge(154,229).
edge(154,231).
edge(154,234).
edge(154,235).
edge(154,236).
edge(154,239).
edge(154,240).
edge(154,246).
edge(154,247).
edge(154,248).
edge(155,157).
edge(155,158).
edge(155,160).
edge(155,162).
edge(155,163).
edge(155,165).
edge(155,166).
edge(155,169).
edge(155,170).
edge(155,171).
edge(155,175).
edge(155,179).
edge(155,182).
edge(155,183).
edge(155,184).
edge(155,186).
edge(155,189).
edge(155,193).
edge(155,195).
edge(155,196).
edge(155,198).
edge(155,199).
edge(155,201).
edge(155,202).
edge(155,203).
edge(155,205).
edge(155,207).
edge(155,208).
edge(155,211).
edge(155,212).
edge(155,217).
edge(155,218).
edge(155,219).
edge(155,220).
edge(155,221).
edge(155,222).
edge(155,224).
edge(155,226).
edge(155,229).
edge(155,231).
edge(155,236).
edge(155,238).
edge(155,239).
edge(155,240).
edge(155,242).
edge(155,243).
edge(155,245).
edge(156,157).
edge(156,158).
edge(156,159).
edge(156,162).
edge(156,163).
edge(156,165).
edge(156,167).
edge(156,169).
edge(156,170).
edge(156,172).
edge(156,173).
edge(156,174).
edge(156,175).
edge(156,177).
edge(156,178).
edge(156,181).
edge(156,182).
edge(156,184).
edge(156,185).
edge(156,190).
edge(156,191).
edge(156,192).
edge(156,193).
edge(156,194).
edge(156,195).
edge(156,196).
edge(156,197).
edge(156,198).
edge(156,199).
edge(156,200).
edge(156,201).
edge(156,203).
edge(156,204).
edge(156,205).
edge(156,206).
edge(156,207).
edge(156,208).
edge(156,209).
edge(156,210).
edge(156,212).
edge(156,213).
edge(156,214).
edge(156,215).
edge(156,220).
edge(156,221).
edge(156,223).
edge(156,225).
edge(156,227).
edge(156,228).
edge(156,229).
edge(156,230).
edge(156,231).
edge(156,234).
edge(156,235).
edge(156,239).
edge(156,240).
edge(156,241).
edge(156,242).
edge(156,243).
edge(156,244).
edge(156,245).
edge(156,246).
edge(156,247).
edge(156,249).
edge(156,250).
edge(157,159).
edge(157,160).
edge(157,161).
edge(157,162).
edge(157,163).
edge(157,164).
edge(157,165).
edge(157,166).
edge(157,167).
edge(157,169).
edge(157,170).
edge(157,172).
edge(157,173).
edge(157,174).
edge(157,177).
edge(157,178).
edge(157,179).
edge(157,180).
edge(157,181).
edge(157,182).
edge(157,183).
edge(157,185).
edge(157,186).
edge(157,187).
edge(157,188).
edge(157,189).
edge(157,191).
edge(157,192).
edge(157,194).
edge(157,195).
edge(157,198).
edge(157,199).
edge(157,200).
edge(157,202).
edge(157,203).
edge(157,204).
edge(157,206).
edge(157,207).
edge(157,208).
edge(157,210).
edge(157,211).
edge(157,212).
edge(157,213).
edge(157,214).
edge(157,215).
edge(157,216).
edge(157,217).
edge(157,218).
edge(157,219).
edge(157,220).
edge(157,222).
edge(157,223).
edge(157,224).
edge(157,225).
edge(157,227).
edge(157,228).
edge(157,229).
edge(157,231).
edge(157,232).
edge(157,233).
edge(157,234).
edge(157,235).
edge(157,236).
edge(157,238).
edge(157,240).
edge(157,241).
edge(157,242).
edge(157,243).
edge(157,244).
edge(157,245).
edge(157,246).
edge(157,248).
edge(157,250).
edge(158,161).
edge(158,162).
edge(158,163).
edge(158,164).
edge(158,165).
edge(158,167).
edge(158,169).
edge(158,170).
edge(158,171).
edge(158,173).
edge(158,174).
edge(158,177).
edge(158,178).
edge(158,179).
edge(158,182).
edge(158,183).
edge(158,184).
edge(158,185).
edge(158,187).
edge(158,189).
edge(158,190).
edge(158,191).
edge(158,192).
edge(158,194).
edge(158,195).
edge(158,196).
edge(158,197).
edge(158,200).
edge(158,202).
edge(158,204).
edge(158,205).
edge(158,206).
edge(158,208).
edge(158,209).
edge(158,210).
edge(158,214).
edge(158,215).
edge(158,218).
edge(158,220).
edge(158,221).
edge(158,222).
edge(158,224).
edge(158,225).
edge(158,226).
edge(158,227).
edge(158,228).
edge(158,229).
edge(158,230).
edge(158,231).
edge(158,233).
edge(158,235).
edge(158,236).
edge(158,237).
edge(158,241).
edge(158,243).
edge(158,244).
edge(158,245).
edge(158,246).
edge(158,249).
edge(158,250).
edge(159,161).
edge(159,162).
edge(159,163).
edge(159,164).
edge(159,165).
edge(159,167).
edge(159,168).
edge(159,170).
edge(159,171).
edge(159,172).
edge(159,174).
edge(159,175).
edge(159,176).
edge(159,177).
edge(159,178).
edge(159,179).
edge(159,181).
edge(159,182).
edge(159,184).
edge(159,185).
edge(159,186).
edge(159,188).
edge(159,190).
edge(159,192).
edge(159,194).
edge(159,196).
edge(159,197).
edge(159,198).
edge(159,199).
edge(159,202).
edge(159,203).
edge(159,204).
edge(159,205).
edge(159,207).
edge(159,210).
edge(159,211).
edge(159,212).
edge(159,213).
edge(159,215).
edge(159,216).
edge(159,217).
edge(159,218).
edge(159,219).
edge(159,220).
edge(159,221).
edge(159,222).
edge(159,224).
edge(159,226).
edge(159,228).
edge(159,229).
edge(159,231).
edge(159,232).
edge(159,233).
edge(159,234).
edge(159,235).
edge(159,237).
edge(159,238).
edge(159,239).
edge(159,240).
edge(159,244).
edge(159,245).
edge(159,246).
edge(159,247).
edge(159,248).
edge(159,249).
edge(160,161).
edge(160,163).
edge(160,166).
edge(160,168).
edge(160,169).
edge(160,171).
edge(160,173).
edge(160,177).
edge(160,178).
edge(160,179).
edge(160,180).
edge(160,181).
edge(160,183).
edge(160,184).
edge(160,185).
edge(160,186).
edge(160,187).
edge(160,188).
edge(160,190).
edge(160,191).
edge(160,193).
edge(160,194).
edge(160,195).
edge(160,196).
edge(160,198).
edge(160,199).
edge(160,200).
edge(160,203).
edge(160,204).
edge(160,205).
edge(160,206).
edge(160,208).
edge(160,209).
edge(160,210).
edge(160,211).
edge(160,212).
edge(160,217).
edge(160,218).
edge(160,219).
edge(160,220).
edge(160,221).
edge(160,222).
edge(160,223).
edge(160,225).
edge(160,226).
edge(160,229).
edge(160,231).
edge(160,232).
edge(160,233).
edge(160,234).
edge(160,235).
edge(160,236).
edge(160,238).
edge(160,240).
edge(160,241).
edge(160,242).
edge(160,243).
edge(160,244).
edge(160,245).
edge(160,246).
edge(160,247).
edge(160,248).
edge(160,250).
edge(161,163).
edge(161,164).
edge(161,166).
edge(161,167).
edge(161,170).
edge(161,172).
edge(161,173).
edge(161,175).
edge(161,176).
edge(161,179).
edge(161,181).
edge(161,182).
edge(161,183).
edge(161,184).
edge(161,185).
edge(161,188).
edge(161,190).
edge(161,191).
edge(161,192).
edge(161,193).
edge(161,195).
edge(161,196).
edge(161,197).
edge(161,201).
edge(161,202).
edge(161,205).
edge(161,206).
edge(161,207).
edge(161,209).
edge(161,210).
edge(161,211).
edge(161,213).
edge(161,214).
edge(161,215).
edge(161,216).
edge(161,218).
edge(161,220).
edge(161,222).
edge(161,223).
edge(161,224).
edge(161,225).
edge(161,226).
edge(161,228).
edge(161,230).
edge(161,234).
edge(161,236).
edge(161,237).
edge(161,244).
edge(161,245).
edge(161,246).
edge(161,247).
edge(161,248).
edge(161,249).
edge(161,250).
edge(162,163).
edge(162,164).
edge(162,165).
edge(162,166).
edge(162,167).
edge(162,168).
edge(162,169).
edge(162,170).
edge(162,171).
edge(162,172).
edge(162,173).
edge(162,174).
edge(162,175).
edge(162,176).
edge(162,177).
edge(162,180).
edge(162,181).
edge(162,182).
edge(162,183).
edge(162,184).
edge(162,185).
edge(162,186).
edge(162,187).
edge(162,188).
edge(162,189).
edge(162,190).
edge(162,192).
edge(162,194).
edge(162,195).
edge(162,197).
edge(162,199).
edge(162,201).
edge(162,202).
edge(162,203).
edge(162,204).
edge(162,205).
edge(162,206).
edge(162,207).
edge(162,208).
edge(162,210).
edge(162,211).
edge(162,214).
edge(162,215).
edge(162,216).
edge(162,217).
edge(162,219).
edge(162,221).
edge(162,223).
edge(162,224).
edge(162,226).
edge(162,227).
edge(162,230).
edge(162,231).
edge(162,233).
edge(162,234).
edge(162,235).
edge(162,237).
edge(162,238).
edge(162,239).
edge(162,241).
edge(162,244).
edge(162,245).
edge(162,246).
edge(162,247).
edge(162,248).
edge(162,249).
edge(163,164).
edge(163,165).
edge(163,166).
edge(163,168).
edge(163,169).
edge(163,171).
edge(163,173).
edge(163,175).
edge(163,177).
edge(163,178).
edge(163,179).
edge(163,180).
edge(163,181).
edge(163,182).
edge(163,183).
edge(163,184).
edge(163,185).
edge(163,186).
edge(163,188).
edge(163,189).
edge(163,190).
edge(163,191).
edge(163,192).
edge(163,194).
edge(163,195).
edge(163,196).
edge(163,199).
edge(163,200).
edge(163,201).
edge(163,202).
edge(163,203).
edge(163,204).
edge(163,206).
edge(163,208).
edge(163,209).
edge(163,210).
edge(163,211).
edge(163,214).
edge(163,215).
edge(163,216).
edge(163,217).
edge(163,218).
edge(163,219).
edge(163,220).
edge(163,224).
edge(163,225).
edge(163,226).
edge(163,227).
edge(163,229).
edge(163,230).
edge(163,231).
edge(163,232).
edge(163,233).
edge(163,234).
edge(163,235).
edge(163,236).
edge(163,238).
edge(163,239).
edge(163,240).
edge(163,241).
edge(163,242).
edge(163,243).
edge(163,244).
edge(163,245).
edge(163,246).
edge(163,247).
edge(163,248).
edge(163,249).
edge(163,250).
edge(164,165).
edge(164,166).
edge(164,167).
edge(164,168).
edge(164,170).
edge(164,171).
edge(164,172).
edge(164,173).
edge(164,174).
edge(164,175).
edge(164,176).
edge(164,177).
edge(164,178).
edge(164,179).
edge(164,182).
edge(164,185).
edge(164,188).
edge(164,189).
edge(164,192).
edge(164,193).
edge(164,196).
edge(164,197).
edge(164,201).
edge(164,202).
edge(164,203).
edge(164,205).
edge(164,207).
edge(164,208).
edge(164,209).
edge(164,210).
edge(164,211).
edge(164,212).
edge(164,213).
edge(164,215).
edge(164,216).
edge(164,218).
edge(164,223).
edge(164,225).
edge(164,227).
edge(164,228).
edge(164,229).
edge(164,230).
edge(164,231).
edge(164,233).
edge(164,234).
edge(164,236).
edge(164,237).
edge(164,238).
edge(164,240).
edge(164,241).
edge(164,243).
edge(164,244).
edge(164,245).
edge(164,246).
edge(164,247).
edge(164,248).
edge(164,249).
edge(164,250).
edge(165,166).
edge(165,168).
edge(165,169).
edge(165,170).
edge(165,172).
edge(165,173).
edge(165,174).
edge(165,175).
edge(165,176).
edge(165,177).
edge(165,178).
edge(165,179).
edge(165,180).
edge(165,181).
edge(165,182).
edge(165,184).
edge(165,185).
edge(165,186).
edge(165,187).
edge(165,188).
edge(165,189).
edge(165,190).
edge(165,191).
edge(165,192).
edge(165,194).
edge(165,195).
edge(165,196).
edge(165,197).
edge(165,198).
edge(165,199).
edge(165,200).
edge(165,202).
edge(165,203).
edge(165,204).
edge(165,205).
edge(165,206).
edge(165,207).
edge(165,208).
edge(165,211).
edge(165,212).
edge(165,213).
edge(165,214).
edge(165,215).
edge(165,216).
edge(165,217).
edge(165,218).
edge(165,219).
edge(165,220).
edge(165,221).
edge(165,222).
edge(165,223).
edge(165,224).
edge(165,225).
edge(165,226).
edge(165,227).
edge(165,230).
edge(165,234).
edge(165,235).
edge(165,236).
edge(165,237).
edge(165,238).
edge(165,242).
edge(165,243).
edge(165,244).
edge(165,245).
edge(165,247).
edge(165,248).
edge(165,250).
edge(166,167).
edge(166,171).
edge(166,172).
edge(166,174).
edge(166,175).
edge(166,176).
edge(166,177).
edge(166,178).
edge(166,179).
edge(166,181).
edge(166,184).
edge(166,185).
edge(166,187).
edge(166,191).
edge(166,194).
edge(166,195).
edge(166,196).
edge(166,197).
edge(166,198).
edge(166,200).
edge(166,202).
edge(166,203).
edge(166,210).
edge(166,211).
edge(166,214).
edge(166,215).
edge(166,216).
edge(166,217).
edge(166,218).
edge(166,219).
edge(166,220).
edge(166,221).
edge(166,223).
edge(166,224).
edge(166,225).
edge(166,226).
edge(166,228).
edge(166,229).
edge(166,232).
edge(166,234).
edge(166,235).
edge(166,236).
edge(166,237).
edge(166,238).
edge(166,239).
edge(166,243).
edge(166,244).
edge(166,245).
edge(166,246).
edge(166,247).
edge(166,249).
edge(167,168).
edge(167,169).
edge(167,170).
edge(167,171).
edge(167,172).
edge(167,174).
edge(167,176).
edge(167,177).
edge(167,178).
edge(167,179).
edge(167,180).
edge(167,181).
edge(167,182).
edge(167,184).
edge(167,185).
edge(167,186).
edge(167,187).
edge(167,188).
edge(167,189).
edge(167,190).
edge(167,192).
edge(167,193).
edge(167,194).
edge(167,197).
edge(167,198).
edge(167,199).
edge(167,201).
edge(167,202).
edge(167,203).
edge(167,205).
edge(167,206).
edge(167,208).
edge(167,209).
edge(167,210).
edge(167,212).
edge(167,213).
edge(167,214).
edge(167,216).
edge(167,218).
edge(167,219).
edge(167,220).
edge(167,222).
edge(167,223).
edge(167,224).
edge(167,225).
edge(167,228).
edge(167,229).
edge(167,230).
edge(167,231).
edge(167,232).
edge(167,234).
edge(167,235).
edge(167,236).
edge(167,238).
edge(167,239).
edge(167,240).
edge(167,241).
edge(167,243).
edge(167,244).
edge(167,245).
edge(167,246).
edge(167,247).
edge(167,248).
edge(167,249).
edge(167,250).
edge(168,169).
edge(168,171).
edge(168,172).
edge(168,175).
edge(168,176).
edge(168,177).
edge(168,179).
edge(168,180).
edge(168,181).
edge(168,182).
edge(168,183).
edge(168,184).
edge(168,185).
edge(168,187).
edge(168,188).
edge(168,190).
edge(168,191).
edge(168,192).
edge(168,194).
edge(168,196).
edge(168,199).
edge(168,200).
edge(168,201).
edge(168,202).
edge(168,204).
edge(168,205).
edge(168,206).
edge(168,207).
edge(168,208).
edge(168,209).
edge(168,211).
edge(168,212).
edge(168,213).
edge(168,215).
edge(168,216).
edge(168,217).
edge(168,219).
edge(168,221).
edge(168,222).
edge(168,223).
edge(168,224).
edge(168,225).
edge(168,226).
edge(168,227).
edge(168,229).
edge(168,231).
edge(168,232).
edge(168,233).
edge(168,234).
edge(168,235).
edge(168,236).
edge(168,237).
edge(168,238).
edge(168,239).
edge(168,241).
edge(168,243).
edge(168,244).
edge(168,245).
edge(168,246).
edge(168,247).
edge(168,248).
edge(168,249).
edge(168,250).
edge(169,170).
edge(169,171).
edge(169,172).
edge(169,173).
edge(169,174).
edge(169,175).
edge(169,176).
edge(169,177).
edge(169,178).
edge(169,179).
edge(169,180).
edge(169,181).
edge(169,183).
edge(169,184).
edge(169,185).
edge(169,186).
edge(169,187).
edge(169,188).
edge(169,190).
edge(169,191).
edge(169,194).
edge(169,195).
edge(169,199).
edge(169,200).
edge(169,201).
edge(169,202).
edge(169,203).
edge(169,204).
edge(169,205).
edge(169,206).
edge(169,207).
edge(169,208).
edge(169,209).
edge(169,210).
edge(169,211).
edge(169,213).
edge(169,215).
edge(169,216).
edge(169,218).
edge(169,219).
edge(169,221).
edge(169,222).
edge(169,223).
edge(169,224).
edge(169,225).
edge(169,226).
edge(169,228).
edge(169,229).
edge(169,231).
edge(169,232).
edge(169,233).
edge(169,234).
edge(169,235).
edge(169,236).
edge(169,237).
edge(169,238).
edge(169,239).
edge(169,240).
edge(169,241).
edge(169,242).
edge(169,243).
edge(169,244).
edge(169,245).
edge(169,246).
edge(169,247).
edge(169,248).
edge(169,249).
edge(169,250).
edge(170,171).
edge(170,172).
edge(170,174).
edge(170,176).
edge(170,177).
edge(170,178).
edge(170,180).
edge(170,182).
edge(170,183).
edge(170,184).
edge(170,185).
edge(170,187).
edge(170,190).
edge(170,193).
edge(170,194).
edge(170,196).
edge(170,197).
edge(170,201).
edge(170,202).
edge(170,203).
edge(170,204).
edge(170,205).
edge(170,207).
edge(170,208).
edge(170,211).
edge(170,213).
edge(170,216).
edge(170,217).
edge(170,218).
edge(170,221).
edge(170,223).
edge(170,224).
edge(170,225).
edge(170,230).
edge(170,231).
edge(170,234).
edge(170,235).
edge(170,236).
edge(170,238).
edge(170,239).
edge(170,240).
edge(170,241).
edge(170,242).
edge(170,243).
edge(170,244).
edge(170,245).
edge(170,246).
edge(170,247).
edge(170,248).
edge(170,250).
edge(171,173).
edge(171,176).
edge(171,177).
edge(171,178).
edge(171,179).
edge(171,182).
edge(171,183).
edge(171,186).
edge(171,188).
edge(171,189).
edge(171,192).
edge(171,193).
edge(171,195).
edge(171,197).
edge(171,198).
edge(171,200).
edge(171,201).
edge(171,202).
edge(171,205).
edge(171,206).
edge(171,207).
edge(171,209).
edge(171,211).
edge(171,214).
edge(171,216).
edge(171,217).
edge(171,220).
edge(171,221).
edge(171,223).
edge(171,225).
edge(171,226).
edge(171,227).
edge(171,228).
edge(171,230).
edge(171,231).
edge(171,234).
edge(171,235).
edge(171,237).
edge(171,238).
edge(171,240).
edge(171,242).
edge(171,243).
edge(171,244).
edge(171,247).
edge(171,248).
edge(171,250).
edge(172,174).
edge(172,175).
edge(172,176).
edge(172,177).
edge(172,179).
edge(172,180).
edge(172,181).
edge(172,182).
edge(172,184).
edge(172,187).
edge(172,188).
edge(172,189).
edge(172,190).
edge(172,191).
edge(172,193).
edge(172,194).
edge(172,196).
edge(172,197).
edge(172,200).
edge(172,201).
edge(172,202).
edge(172,203).
edge(172,205).
edge(172,206).
edge(172,209).
edge(172,210).
edge(172,211).
edge(172,212).
edge(172,214).
edge(172,215).
edge(172,216).
edge(172,217).
edge(172,219).
edge(172,220).
edge(172,221).
edge(172,222).
edge(172,225).
edge(172,228).
edge(172,229).
edge(172,230).
edge(172,232).
edge(172,237).
edge(172,239).
edge(172,240).
edge(172,243).
edge(172,244).
edge(172,245).
edge(172,246).
edge(172,247).
edge(172,249).
edge(172,250).
edge(173,177).
edge(173,178).
edge(173,180).
edge(173,181).
edge(173,182).
edge(173,185).
edge(173,186).
edge(173,188).
edge(173,189).
edge(173,190).
edge(173,191).
edge(173,193).
edge(173,195).
edge(173,196).
edge(173,198).
edge(173,199).
edge(173,201).
edge(173,203).
edge(173,207).
edge(173,211).
edge(173,216).
edge(173,218).
edge(173,219).
edge(173,222).
edge(173,224).
edge(173,226).
edge(173,227).
edge(173,229).
edge(173,231).
edge(173,232).
edge(173,234).
edge(173,235).
edge(173,236).
edge(173,241).
edge(173,242).
edge(173,243).
edge(173,244).
edge(173,246).
edge(173,247).
edge(173,248).
edge(174,176).
edge(174,177).
edge(174,178).
edge(174,179).
edge(174,180).
edge(174,182).
edge(174,183).
edge(174,184).
edge(174,186).
edge(174,188).
edge(174,189).
edge(174,190).
edge(174,191).
edge(174,192).
edge(174,193).
edge(174,194).
edge(174,195).
edge(174,196).
edge(174,197).
edge(174,198).
edge(174,199).
edge(174,200).
edge(174,201).
edge(174,203).
edge(174,204).
edge(174,205).
edge(174,206).
edge(174,208).
edge(174,209).
edge(174,210).
edge(174,212).
edge(174,213).
edge(174,214).
edge(174,217).
edge(174,218).
edge(174,219).
edge(174,221).
edge(174,222).
edge(174,223).
edge(174,224).
edge(174,227).
edge(174,229).
edge(174,230).
edge(174,231).
edge(174,232).
edge(174,233).
edge(174,234).
edge(174,235).
edge(174,236).
edge(174,237).
edge(174,238).
edge(174,239).
edge(174,242).
edge(174,243).
edge(174,244).
edge(174,245).
edge(174,246).
edge(174,249).
edge(175,176).
edge(175,177).
edge(175,178).
edge(175,180).
edge(175,181).
edge(175,182).
edge(175,183).
edge(175,184).
edge(175,186).
edge(175,187).
edge(175,189).
edge(175,190).
edge(175,191).
edge(175,192).
edge(175,193).
edge(175,196).
edge(175,198).
edge(175,199).
edge(175,200).
edge(175,202).
edge(175,204).
edge(175,205).
edge(175,207).
edge(175,208).
edge(175,210).
edge(175,211).
edge(175,212).
edge(175,213).
edge(175,214).
edge(175,216).
edge(175,217).
edge(175,218).
edge(175,219).
edge(175,221).
edge(175,225).
edge(175,226).
edge(175,227).
edge(175,229).
edge(175,231).
edge(175,233).
edge(175,234).
edge(175,236).
edge(175,237).
edge(175,239).
edge(175,240).
edge(175,241).
edge(175,243).
edge(175,244).
edge(175,245).
edge(175,246).
edge(175,247).
edge(175,250).
edge(176,177).
edge(176,179).
edge(176,180).
edge(176,182).
edge(176,183).
edge(176,186).
edge(176,188).
edge(176,190).
edge(176,193).
edge(176,196).
edge(176,197).
edge(176,199).
edge(176,200).
edge(176,202).
edge(176,203).
edge(176,205).
edge(176,208).
edge(176,209).
edge(176,210).
edge(176,213).
edge(176,215).
edge(176,217).
edge(176,218).
edge(176,219).
edge(176,220).
edge(176,221).
edge(176,225).
edge(176,226).
edge(176,227).
edge(176,228).
edge(176,229).
edge(176,231).
edge(176,238).
edge(176,239).
edge(176,241).
edge(176,242).
edge(176,243).
edge(176,244).
edge(176,245).
edge(176,248).
edge(176,249).
edge(177,178).
edge(177,180).
edge(177,181).
edge(177,183).
edge(177,184).
edge(177,185).
edge(177,186).
edge(177,187).
edge(177,190).
edge(177,191).
edge(177,193).
edge(177,194).
edge(177,195).
edge(177,197).
edge(177,198).
edge(177,199).
edge(177,200).
edge(177,202).
edge(177,203).
edge(177,204).
edge(177,205).
edge(177,206).
edge(177,207).
edge(177,208).
edge(177,209).
edge(177,211).
edge(177,212).
edge(177,213).
edge(177,214).
edge(177,215).
edge(177,216).
edge(177,219).
edge(177,224).
edge(177,226).
edge(177,230).
edge(177,231).
edge(177,233).
edge(177,234).
edge(177,235).
edge(177,236).
edge(177,238).
edge(177,239).
edge(177,240).
edge(177,241).
edge(177,242).
edge(177,244).
edge(177,245).
edge(177,246).
edge(177,248).
edge(177,249).
edge(178,179).
edge(178,180).
edge(178,181).
edge(178,182).
edge(178,183).
edge(178,185).
edge(178,187).
edge(178,188).
edge(178,189).
edge(178,190).
edge(178,191).
edge(178,192).
edge(178,193).
edge(178,194).
edge(178,195).
edge(178,196).
edge(178,197).
edge(178,198).
edge(178,199).
edge(178,201).
edge(178,202).
edge(178,204).
edge(178,205).
edge(178,206).
edge(178,209).
edge(178,210).
edge(178,211).
edge(178,212).
edge(178,218).
edge(178,220).
edge(178,221).
edge(178,223).
edge(178,224).
edge(178,225).
edge(178,226).
edge(178,227).
edge(178,228).
edge(178,229).
edge(178,231).
edge(178,232).
edge(178,233).
edge(178,234).
edge(178,235).
edge(178,238).
edge(178,239).
edge(178,240).
edge(178,241).
edge(178,242).
edge(178,243).
edge(178,246).
edge(178,247).
edge(178,248).
edge(178,249).
edge(179,181).
edge(179,182).
edge(179,185).
edge(179,187).
edge(179,188).
edge(179,189).
edge(179,190).
edge(179,191).
edge(179,193).
edge(179,194).
edge(179,195).
edge(179,196).
edge(179,198).
edge(179,199).
edge(179,200).
edge(179,201).
edge(179,202).
edge(179,204).
edge(179,205).
edge(179,206).
edge(179,208).
edge(179,209).
edge(179,210).
edge(179,211).
edge(179,212).
edge(179,213).
edge(179,214).
edge(179,215).
edge(179,216).
edge(179,217).
edge(179,218).
edge(179,219).
edge(179,222).
edge(179,224).
edge(179,225).
edge(179,228).
edge(179,229).
edge(179,230).
edge(179,231).
edge(179,232).
edge(179,233).
edge(179,234).
edge(179,235).
edge(179,236).
edge(179,237).
edge(179,239).
edge(179,240).
edge(179,241).
edge(179,242).
edge(179,243).
edge(179,244).
edge(179,245).
edge(179,246).
edge(179,247).
edge(180,181).
edge(180,182).
edge(180,184).
edge(180,186).
edge(180,191).
edge(180,192).
edge(180,194).
edge(180,195).
edge(180,196).
edge(180,197).
edge(180,199).
edge(180,200).
edge(180,202).
edge(180,203).
edge(180,205).
edge(180,206).
edge(180,208).
edge(180,209).
edge(180,211).
edge(180,213).
edge(180,214).
edge(180,215).
edge(180,216).
edge(180,217).
edge(180,219).
edge(180,220).
edge(180,221).
edge(180,223).
edge(180,224).
edge(180,225).
edge(180,226).
edge(180,227).
edge(180,228).
edge(180,230).
edge(180,231).
edge(180,233).
edge(180,234).
edge(180,235).
edge(180,236).
edge(180,237).
edge(180,238).
edge(180,240).
edge(180,241).
edge(180,242).
edge(180,244).
edge(180,245).
edge(180,246).
edge(181,185).
edge(181,186).
edge(181,191).
edge(181,193).
edge(181,194).
edge(181,195).
edge(181,196).
edge(181,199).
edge(181,200).
edge(181,202).
edge(181,204).
edge(181,206).
edge(181,208).
edge(181,209).
edge(181,211).
edge(181,212).
edge(181,213).
edge(181,216).
edge(181,219).
edge(181,220).
edge(181,222).
edge(181,223).
edge(181,224).
edge(181,225).
edge(181,228).
edge(181,229).
edge(181,230).
edge(181,231).
edge(181,232).
edge(181,233).
edge(181,234).
edge(181,235).
edge(181,236).
edge(181,237).
edge(181,238).
edge(181,239).
edge(181,241).
edge(181,242).
edge(181,243).
edge(181,244).
edge(181,245).
edge(181,246).
edge(181,247).
edge(181,248).
edge(182,183).
edge(182,184).
edge(182,186).
edge(182,187).
edge(182,188).
edge(182,189).
edge(182,192).
edge(182,194).
edge(182,195).
edge(182,196).
edge(182,197).
edge(182,198).
edge(182,199).
edge(182,200).
edge(182,201).
edge(182,202).
edge(182,206).
edge(182,208).
edge(182,209).
edge(182,211).
edge(182,213).
edge(182,216).
edge(182,218).
edge(182,219).
edge(182,225).
edge(182,228).
edge(182,229).
edge(182,231).
edge(182,232).
edge(182,233).
edge(182,234).
edge(182,237).
edge(182,240).
edge(182,241).
edge(182,242).
edge(182,243).
edge(182,244).
edge(182,245).
edge(182,247).
edge(182,249).
edge(182,250).
edge(183,184).
edge(183,185).
edge(183,187).
edge(183,188).
edge(183,190).
edge(183,191).
edge(183,192).
edge(183,193).
edge(183,194).
edge(183,195).
edge(183,196).
edge(183,198).
edge(183,200).
edge(183,201).
edge(183,202).
edge(183,203).
edge(183,205).
edge(183,207).
edge(183,211).
edge(183,212).
edge(183,214).
edge(183,215).
edge(183,216).
edge(183,218).
edge(183,219).
edge(183,220).
edge(183,221).
edge(183,222).
edge(183,223).
edge(183,225).
edge(183,226).
edge(183,227).
edge(183,228).
edge(183,229).
edge(183,231).
edge(183,232).
edge(183,233).
edge(183,234).
edge(183,235).
edge(183,236).
edge(183,237).
edge(183,238).
edge(183,239).
edge(183,240).
edge(183,241).
edge(183,242).
edge(183,243).
edge(183,245).
edge(183,246).
edge(183,247).
edge(183,248).
edge(183,249).
edge(183,250).
edge(184,185).
edge(184,186).
edge(184,187).
edge(184,188).
edge(184,189).
edge(184,190).
edge(184,192).
edge(184,194).
edge(184,195).
edge(184,197).
edge(184,199).
edge(184,201).
edge(184,202).
edge(184,203).
edge(184,204).
edge(184,205).
edge(184,206).
edge(184,207).
edge(184,208).
edge(184,210).
edge(184,211).
edge(184,213).
edge(184,214).
edge(184,215).
edge(184,216).
edge(184,217).
edge(184,218).
edge(184,219).
edge(184,220).
edge(184,221).
edge(184,222).
edge(184,224).
edge(184,226).
edge(184,228).
edge(184,230).
edge(184,233).
edge(184,234).
edge(184,235).
edge(184,236).
edge(184,237).
edge(184,239).
edge(184,240).
edge(184,244).
edge(184,245).
edge(184,246).
edge(184,247).
edge(184,249).
edge(184,250).
edge(185,187).
edge(185,189).
edge(185,191).
edge(185,193).
edge(185,195).
edge(185,196).
edge(185,197).
edge(185,198).
edge(185,199).
edge(185,200).
edge(185,202).
edge(185,203).
edge(185,204).
edge(185,205).
edge(185,207).
edge(185,208).
edge(185,209).
edge(185,211).
edge(185,212).
edge(185,214).
edge(185,218).
edge(185,221).
edge(185,222).
edge(185,223).
edge(185,224).
edge(185,225).
edge(185,226).
edge(185,228).
edge(185,229).
edge(185,230).
edge(185,231).
edge(185,232).
edge(185,233).
edge(185,234).
edge(185,235).
edge(185,238).
edge(185,239).
edge(185,240).
edge(185,241).
edge(185,242).
edge(185,243).
edge(185,244).
edge(185,245).
edge(185,246).
edge(185,247).
edge(185,250).
edge(186,187).
edge(186,189).
edge(186,190).
edge(186,193).
edge(186,194).
edge(186,198).
edge(186,199).
edge(186,200).
edge(186,201).
edge(186,202).
edge(186,203).
edge(186,204).
edge(186,206).
edge(186,207).
edge(186,208).
edge(186,210).
edge(186,211).
edge(186,212).
edge(186,213).
edge(186,218).
edge(186,219).
edge(186,220).
edge(186,223).
edge(186,224).
edge(186,226).
edge(186,227).
edge(186,228).
edge(186,229).
edge(186,230).
edge(186,231).
edge(186,233).
edge(186,234).
edge(186,235).
edge(186,238).
edge(186,240).
edge(186,241).
edge(186,242).
edge(186,243).
edge(186,244).
edge(186,245).
edge(186,246).
edge(186,247).
edge(186,248).
edge(187,188).
edge(187,190).
edge(187,192).
edge(187,193).
edge(187,194).
edge(187,196).
edge(187,197).
edge(187,198).
edge(187,199).
edge(187,200).
edge(187,201).
edge(187,203).
edge(187,204).
edge(187,205).
edge(187,208).
edge(187,209).
edge(187,210).
edge(187,211).
edge(187,213).
edge(187,217).
edge(187,218).
edge(187,219).
edge(187,220).
edge(187,224).
edge(187,225).
edge(187,226).
edge(187,227).
edge(187,228).
edge(187,229).
edge(187,231).
edge(187,233).
edge(187,237).
edge(187,238).
edge(187,241).
edge(187,243).
edge(187,244).
edge(187,245).
edge(187,246).
edge(187,247).
edge(187,249).
edge(188,189).
edge(188,191).
edge(188,192).
edge(188,194).
edge(188,196).
edge(188,197).
edge(188,198).
edge(188,199).
edge(188,200).
edge(188,203).
edge(188,204).
edge(188,205).
edge(188,210).
edge(188,214).
edge(188,216).
edge(188,218).
edge(188,221).
edge(188,222).
edge(188,224).
edge(188,225).
edge(188,229).
edge(188,230).
edge(188,231).
edge(188,232).
edge(188,233).
edge(188,234).
edge(188,235).
edge(188,236).
edge(188,238).
edge(188,241).
edge(188,243).
edge(188,244).
edge(188,245).
edge(188,246).
edge(188,247).
edge(188,248).
edge(188,249).
edge(189,190).
edge(189,191).
edge(189,195).
edge(189,196).
edge(189,197).
edge(189,198).
edge(189,200).
edge(189,203).
edge(189,204).
edge(189,205).
edge(189,208).
edge(189,209).
edge(189,210).
edge(189,214).
edge(189,215).
edge(189,216).
edge(189,218).
edge(189,219).
edge(189,220).
edge(189,221).
edge(189,223).
edge(189,225).
edge(189,226).
edge(189,227).
edge(189,228).
edge(189,230).
edge(189,231).
edge(189,233).
edge(189,234).
edge(189,237).
edge(189,239).
edge(189,240).
edge(189,242).
edge(189,243).
edge(189,244).
edge(189,246).
edge(189,247).
edge(189,249).
edge(190,191).
edge(190,192).
edge(190,193).
edge(190,194).
edge(190,195).
edge(190,196).
edge(190,197).
edge(190,198).
edge(190,199).
edge(190,200).
edge(190,201).
edge(190,202).
edge(190,203).
edge(190,204).
edge(190,205).
edge(190,206).
edge(190,209).
edge(190,210).
edge(190,211).
edge(190,213).
edge(190,216).
edge(190,217).
edge(190,219).
edge(190,221).
edge(190,222).
edge(190,225).
edge(190,226).
edge(190,229).
edge(190,231).
edge(190,232).
edge(190,234).
edge(190,235).
edge(190,236).
edge(190,238).
edge(190,239).
edge(190,240).
edge(190,241).
edge(190,244).
edge(190,245).
edge(190,246).
edge(190,247).
edge(191,192).
edge(191,194).
edge(191,195).
edge(191,196).
edge(191,197).
edge(191,198).
edge(191,199).
edge(191,200).
edge(191,201).
edge(191,202).
edge(191,203).
edge(191,204).
edge(191,205).
edge(191,206).
edge(191,207).
edge(191,209).
edge(191,210).
edge(191,211).
edge(191,213).
edge(191,214).
edge(191,215).
edge(191,216).
edge(191,217).
edge(191,218).
edge(191,220).
edge(191,222).
edge(191,223).
edge(191,224).
edge(191,225).
edge(191,226).
edge(191,227).
edge(191,229).
edge(191,231).
edge(191,232).
edge(191,233).
edge(191,234).
edge(191,235).
edge(191,237).
edge(191,240).
edge(191,241).
edge(191,242).
edge(191,243).
edge(191,244).
edge(191,246).
edge(191,247).
edge(191,248).
edge(191,249).
edge(191,250).
edge(192,194).
edge(192,195).
edge(192,196).
edge(192,197).
edge(192,198).
edge(192,199).
edge(192,200).
edge(192,201).
edge(192,202).
edge(192,204).
edge(192,205).
edge(192,206).
edge(192,207).
edge(192,208).
edge(192,209).
edge(192,210).
edge(192,211).
edge(192,212).
edge(192,213).
edge(192,214).
edge(192,215).
edge(192,216).
edge(192,217).
edge(192,218).
edge(192,219).
edge(192,220).
edge(192,221).
edge(192,223).
edge(192,224).
edge(192,225).
edge(192,226).
edge(192,230).
edge(192,231).
edge(192,232).
edge(192,233).
edge(192,237).
edge(192,239).
edge(192,240).
edge(192,241).
edge(192,242).
edge(192,243).
edge(192,244).
edge(192,245).
edge(192,247).
edge(192,248).
edge(192,249).
edge(192,250).
edge(193,195).
edge(193,197).
edge(193,198).
edge(193,200).
edge(193,201).
edge(193,202).
edge(193,205).
edge(193,206).
edge(193,207).
edge(193,208).
edge(193,210).
edge(193,213).
edge(193,214).
edge(193,215).
edge(193,216).
edge(193,218).
edge(193,220).
edge(193,221).
edge(193,226).
edge(193,227).
edge(193,228).
edge(193,229).
edge(193,234).
edge(193,235).
edge(193,239).
edge(193,240).
edge(193,242).
edge(193,245).
edge(193,246).
edge(193,247).
edge(193,248).
edge(193,250).
edge(194,195).
edge(194,196).
edge(194,197).
edge(194,199).
edge(194,201).
edge(194,202).
edge(194,203).
edge(194,204).
edge(194,205).
edge(194,206).
edge(194,207).
edge(194,208).
edge(194,209).
edge(194,210).
edge(194,211).
edge(194,213).
edge(194,214).
edge(194,216).
edge(194,217).
edge(194,219).
edge(194,221).
edge(194,222).
edge(194,224).
edge(194,225).
edge(194,227).
edge(194,229).
edge(194,231).
edge(194,232).
edge(194,233).
edge(194,234).
edge(194,235).
edge(194,236).
edge(194,238).
edge(194,239).
edge(194,240).
edge(194,242).
edge(194,244).
edge(194,245).
edge(194,246).
edge(194,247).
edge(194,248).
edge(194,249).
edge(194,250).
edge(195,196).
edge(195,197).
edge(195,198).
edge(195,199).
edge(195,200).
edge(195,202).
edge(195,203).
edge(195,204).
edge(195,205).
edge(195,207).
edge(195,209).
edge(195,210).
edge(195,211).
edge(195,212).
edge(195,213).
edge(195,215).
edge(195,216).
edge(195,219).
edge(195,221).
edge(195,223).
edge(195,224).
edge(195,225).
edge(195,227).
edge(195,228).
edge(195,229).
edge(195,230).
edge(195,231).
edge(195,233).
edge(195,235).
edge(195,236).
edge(195,238).
edge(195,239).
edge(195,240).
edge(195,241).
edge(195,242).
edge(195,243).
edge(195,246).
edge(195,248).
edge(195,250).
edge(196,199).
edge(196,202).
edge(196,204).
edge(196,210).
edge(196,211).
edge(196,212).
edge(196,213).
edge(196,214).
edge(196,215).
edge(196,216).
edge(196,219).
edge(196,221).
edge(196,222).
edge(196,226).
edge(196,227).
edge(196,228).
edge(196,230).
edge(196,231).
edge(196,232).
edge(196,233).
edge(196,234).
edge(196,235).
edge(196,236).
edge(196,238).
edge(196,240).
edge(196,241).
edge(196,242).
edge(196,245).
edge(196,246).
edge(196,247).
edge(196,248).
edge(196,249).
edge(197,199).
edge(197,200).
edge(197,202).
edge(197,203).
edge(197,204).
edge(197,205).
edge(197,206).
edge(197,208).
edge(197,209).
edge(197,212).
edge(197,214).
edge(197,218).
edge(197,220).
edge(197,226).
edge(197,229).
edge(197,230).
edge(197,231).
edge(197,232).
edge(197,233).
edge(197,235).
edge(197,239).
edge(197,241).
edge(197,242).
edge(197,244).
edge(197,245).
edge(197,246).
edge(197,247).
edge(197,249).
edge(197,250).
edge(198,199).
edge(198,201).
edge(198,203).
edge(198,204).
edge(198,205).
edge(198,206).
edge(198,207).
edge(198,208).
edge(198,212).
edge(198,214).
edge(198,215).
edge(198,216).
edge(198,219).
edge(198,221).
edge(198,222).
edge(198,225).
edge(198,226).
edge(198,228).
edge(198,232).
edge(198,233).
edge(198,234).
edge(198,236).
edge(198,237).
edge(198,238).
edge(198,239).
edge(198,240).
edge(198,241).
edge(198,242).
edge(198,243).
edge(198,245).
edge(198,246).
edge(198,249).
edge(198,250).
edge(199,202).
edge(199,203).
edge(199,204).
edge(199,205).
edge(199,206).
edge(199,207).
edge(199,208).
edge(199,209).
edge(199,210).
edge(199,211).
edge(199,212).
edge(199,214).
edge(199,216).
edge(199,217).
edge(199,219).
edge(199,220).
edge(199,221).
edge(199,222).
edge(199,224).
edge(199,225).
edge(199,226).
edge(199,227).
edge(199,229).
edge(199,231).
edge(199,233).
edge(199,234).
edge(199,235).
edge(199,237).
edge(199,238).
edge(199,239).
edge(199,240).
edge(199,241).
edge(199,242).
edge(199,243).
edge(199,244).
edge(199,245).
edge(199,246).
edge(199,248).
edge(199,249).
edge(200,203).
edge(200,204).
edge(200,205).
edge(200,208).
edge(200,211).
edge(200,212).
edge(200,213).
edge(200,214).
edge(200,215).
edge(200,217).
edge(200,218).
edge(200,219).
edge(200,220).
edge(200,222).
edge(200,223).
edge(200,224).
edge(200,225).
edge(200,226).
edge(200,227).
edge(200,229).
edge(200,230).
edge(200,232).
edge(200,233).
edge(200,234).
edge(200,235).
edge(200,237).
edge(200,238).
edge(200,240).
edge(200,241).
edge(200,246).
edge(200,247).
edge(200,248).
edge(200,249).
edge(201,202).
edge(201,203).
edge(201,205).
edge(201,206).
edge(201,208).
edge(201,211).
edge(201,213).
edge(201,215).
edge(201,219).
edge(201,222).
edge(201,223).
edge(201,224).
edge(201,226).
edge(201,227).
edge(201,228).
edge(201,231).
edge(201,234).
edge(201,236).
edge(201,237).
edge(201,239).
edge(201,240).
edge(201,241).
edge(201,242).
edge(201,244).
edge(201,245).
edge(201,246).
edge(201,247).
edge(201,250).
edge(202,203).
edge(202,204).
edge(202,205).
edge(202,206).
edge(202,207).
edge(202,208).
edge(202,211).
edge(202,212).
edge(202,213).
edge(202,214).
edge(202,216).
edge(202,217).
edge(202,218).
edge(202,219).
edge(202,220).
edge(202,221).
edge(202,223).
edge(202,224).
edge(202,225).
edge(202,226).
edge(202,227).
edge(202,229).
edge(202,231).
edge(202,232).
edge(202,234).
edge(202,235).
edge(202,236).
edge(202,237).
edge(202,238).
edge(202,240).
edge(202,241).
edge(202,242).
edge(202,243).
edge(202,244).
edge(202,245).
edge(202,247).
edge(202,248).
edge(202,249).
edge(202,250).
edge(203,205).
edge(203,209).
edge(203,210).
edge(203,212).
edge(203,213).
edge(203,215).
edge(203,218).
edge(203,219).
edge(203,220).
edge(203,221).
edge(203,222).
edge(203,223).
edge(203,224).
edge(203,225).
edge(203,226).
edge(203,231).
edge(203,232).
edge(203,234).
edge(203,238).
edge(203,239).
edge(203,240).
edge(203,243).
edge(203,244).
edge(203,245).
edge(203,246).
edge(203,250).
edge(204,205).
edge(204,207).
edge(204,208).
edge(204,210).
edge(204,211).
edge(204,212).
edge(204,214).
edge(204,215).
edge(204,216).
edge(204,217).
edge(204,218).
edge(204,219).
edge(204,220).
edge(204,221).
edge(204,224).
edge(204,225).
edge(204,226).
edge(204,227).
edge(204,229).
edge(204,231).
edge(204,232).
edge(204,233).
edge(204,234).
edge(204,235).
edge(204,236).
edge(204,237).
edge(204,238).
edge(204,239).
edge(204,240).
edge(204,241).
edge(204,242).
edge(204,243).
edge(204,244).
edge(204,245).
edge(204,246).
edge(204,247).
edge(204,248).
edge(204,249).
edge(204,250).
edge(205,207).
edge(205,208).
edge(205,210).
edge(205,214).
edge(205,215).
edge(205,216).
edge(205,217).
edge(205,218).
edge(205,219).
edge(205,220).
edge(205,222).
edge(205,223).
edge(205,225).
edge(205,226).
edge(205,227).
edge(205,229).
edge(205,230).
edge(205,231).
edge(205,234).
edge(205,240).
edge(205,241).
edge(205,244).
edge(205,246).
edge(205,247).
edge(205,248).
edge(205,249).
edge(205,250).
edge(206,208).
edge(206,209).
edge(206,211).
edge(206,212).
edge(206,213).
edge(206,214).
edge(206,217).
edge(206,218).
edge(206,219).
edge(206,222).
edge(206,224).
edge(206,225).
edge(206,227).
edge(206,228).
edge(206,229).
edge(206,232).
edge(206,233).
edge(206,234).
edge(206,235).
edge(206,237).
edge(206,238).
edge(206,240).
edge(206,241).
edge(206,242).
edge(206,244).
edge(206,245).
edge(206,247).
edge(206,248).
edge(206,250).
edge(207,208).
edge(207,210).
edge(207,211).
edge(207,212).
edge(207,216).
edge(207,217).
edge(207,218).
edge(207,219).
edge(207,221).
edge(207,222).
edge(207,223).
edge(207,224).
edge(207,225).
edge(207,226).
edge(207,227).
edge(207,230).
edge(207,231).
edge(207,233).
edge(207,235).
edge(207,236).
edge(207,237).
edge(207,238).
edge(207,239).
edge(207,240).
edge(207,241).
edge(207,242).
edge(207,243).
edge(207,245).
edge(207,247).
edge(207,249).
edge(207,250).
edge(208,209).
edge(208,210).
edge(208,211).
edge(208,213).
edge(208,214).
edge(208,215).
edge(208,216).
edge(208,217).
edge(208,219).
edge(208,220).
edge(208,221).
edge(208,224).
edge(208,225).
edge(208,226).
edge(208,230).
edge(208,231).
edge(208,232).
edge(208,234).
edge(208,235).
edge(208,236).
edge(208,237).
edge(208,238).
edge(208,239).
edge(208,241).
edge(208,244).
edge(208,249).
edge(209,210).
edge(209,213).
edge(209,214).
edge(209,215).
edge(209,217).
edge(209,219).
edge(209,222).
edge(209,224).
edge(209,225).
edge(209,226).
edge(209,229).
edge(209,230).
edge(209,231).
edge(209,232).
edge(209,234).
edge(209,235).
edge(209,237).
edge(209,238).
edge(209,239).
edge(209,241).
edge(209,242).
edge(209,243).
edge(209,245).
edge(209,246).
edge(209,247).
edge(209,249).
edge(209,250).
edge(210,211).
edge(210,212).
edge(210,214).
edge(210,216).
edge(210,217).
edge(210,220).
edge(210,221).
edge(210,223).
edge(210,224).
edge(210,225).
edge(210,226).
edge(210,227).
edge(210,228).
edge(210,229).
edge(210,230).
edge(210,234).
edge(210,236).
edge(210,237).
edge(210,238).
edge(210,239).
edge(210,241).
edge(210,242).
edge(210,243).
edge(210,245).
edge(210,247).
edge(210,249).
edge(210,250).
edge(211,212).
edge(211,213).
edge(211,215).
edge(211,216).
edge(211,217).
edge(211,218).
edge(211,219).
edge(211,220).
edge(211,221).
edge(211,222).
edge(211,224).
edge(211,225).
edge(211,226).
edge(211,229).
edge(211,231).
edge(211,233).
edge(211,234).
edge(211,235).
edge(211,236).
edge(211,237).
edge(211,238).
edge(211,241).
edge(211,242).
edge(211,243).
edge(211,244).
edge(211,245).
edge(211,246).
edge(211,247).
edge(212,213).
edge(212,214).
edge(212,215).
edge(212,216).
edge(212,217).
edge(212,219).
edge(212,221).
edge(212,222).
edge(212,223).
edge(212,224).
edge(212,227).
edge(212,228).
edge(212,229).
edge(212,230).
edge(212,231).
edge(212,232).
edge(212,233).
edge(212,234).
edge(212,235).
edge(212,237).
edge(212,240).
edge(212,241).
edge(212,242).
edge(212,243).
edge(212,244).
edge(212,246).
edge(212,247).
edge(212,249).
edge(212,250).
edge(213,214).
edge(213,215).
edge(213,216).
edge(213,217).
edge(213,219).
edge(213,220).
edge(213,223).
edge(213,224).
edge(213,225).
edge(213,230).
edge(213,232).
edge(213,233).
edge(213,236).
edge(213,238).
edge(213,240).
edge(213,241).
edge(213,244).
edge(213,247).
edge(213,250).
edge(214,215).
edge(214,216).
edge(214,218).
edge(214,219).
edge(214,221).
edge(214,223).
edge(214,224).
edge(214,225).
edge(214,226).
edge(214,227).
edge(214,228).
edge(214,229).
edge(214,231).
edge(214,232).
edge(214,233).
edge(214,234).
edge(214,237).
edge(214,238).
edge(214,240).
edge(214,241).
edge(214,242).
edge(214,243).
edge(214,245).
edge(214,248).
edge(214,249).
edge(214,250).
edge(215,220).
edge(215,221).
edge(215,223).
edge(215,229).
edge(215,230).
edge(215,232).
edge(215,233).
edge(215,235).
edge(215,236).
edge(215,238).
edge(215,240).
edge(215,242).
edge(215,244).
edge(215,246).
edge(215,247).
edge(215,248).
edge(215,250).
edge(216,217).
edge(216,218).
edge(216,219).
edge(216,220).
edge(216,221).
edge(216,222).
edge(216,226).
edge(216,227).
edge(216,229).
edge(216,230).
edge(216,231).
edge(216,232).
edge(216,234).
edge(216,235).
edge(216,236).
edge(216,237).
edge(216,238).
edge(216,239).
edge(216,240).
edge(216,244).
edge(216,245).
edge(216,246).
edge(216,247).
edge(216,248).
edge(216,249).
edge(217,218).
edge(217,219).
edge(217,221).
edge(217,223).
edge(217,224).
edge(217,225).
edge(217,226).
edge(217,228).
edge(217,231).
edge(217,235).
edge(217,237).
edge(217,239).
edge(217,241).
edge(217,242).
edge(217,243).
edge(217,245).
edge(217,247).
edge(217,249).
edge(217,250).
edge(218,220).
edge(218,223).
edge(218,225).
edge(218,226).
edge(218,228).
edge(218,229).
edge(218,230).
edge(218,232).
edge(218,233).
edge(218,234).
edge(218,235).
edge(218,236).
edge(218,239).
edge(218,240).
edge(218,242).
edge(218,243).
edge(218,244).
edge(218,245).
edge(218,246).
edge(218,247).
edge(218,250).
edge(219,221).
edge(219,223).
edge(219,224).
edge(219,225).
edge(219,226).
edge(219,227).
edge(219,232).
edge(219,234).
edge(219,235).
edge(219,236).
edge(219,237).
edge(219,238).
edge(219,240).
edge(219,241).
edge(219,243).
edge(219,244).
edge(219,245).
edge(219,248).
edge(219,249).
edge(219,250).
edge(220,222).
edge(220,224).
edge(220,226).
edge(220,228).
edge(220,229).
edge(220,231).
edge(220,232).
edge(220,235).
edge(220,236).
edge(220,237).
edge(220,238).
edge(220,240).
edge(220,243).
edge(220,245).
edge(220,246).
edge(220,248).
edge(221,222).
edge(221,223).
edge(221,224).
edge(221,225).
edge(221,226).
edge(221,227).
edge(221,229).
edge(221,230).
edge(221,231).
edge(221,233).
edge(221,234).
edge(221,237).
edge(221,239).
edge(221,241).
edge(221,242).
edge(221,245).
edge(221,246).
edge(221,247).
edge(221,249).
edge(222,225).
edge(222,227).
edge(222,228).
edge(222,230).
edge(222,233).
edge(222,235).
edge(222,237).
edge(222,238).
edge(222,239).
edge(222,243).
edge(222,244).
edge(222,246).
edge(222,248).
edge(222,250).
edge(223,226).
edge(223,227).
edge(223,228).
edge(223,230).
edge(223,231).
edge(223,232).
edge(223,233).
edge(223,234).
edge(223,235).
edge(223,236).
edge(223,237).
edge(223,238).
edge(223,239).
edge(223,241).
edge(223,243).
edge(223,245).
edge(223,246).
edge(223,247).
edge(223,248).
edge(223,250).
edge(224,225).
edge(224,230).
edge(224,233).
edge(224,234).
edge(224,235).
edge(224,237).
edge(224,238).
edge(224,239).
edge(224,240).
edge(224,241).
edge(224,242).
edge(224,244).
edge(224,245).
edge(224,247).
edge(224,250).
edge(225,227).
edge(225,228).
edge(225,229).
edge(225,230).
edge(225,231).
edge(225,232).
edge(225,233).
edge(225,235).
edge(225,236).
edge(225,237).
edge(225,238).
edge(225,239).
edge(225,241).
edge(225,242).
edge(225,243).
edge(225,244).
edge(225,245).
edge(225,246).
edge(225,248).
edge(225,249).
edge(226,227).
edge(226,229).
edge(226,230).
edge(226,232).
edge(226,233).
edge(226,235).
edge(226,237).
edge(226,238).
edge(226,242).
edge(226,244).
edge(226,245).
edge(226,246).
edge(226,247).
edge(226,248).
edge(226,249).
edge(226,250).
edge(227,229).
edge(227,230).
edge(227,231).
edge(227,232).
edge(227,235).
edge(227,237).
edge(227,238).
edge(227,240).
edge(227,242).
edge(227,244).
edge(227,245).
edge(227,247).
edge(227,250).
edge(228,230).
edge(228,232).
edge(228,233).
edge(228,235).
edge(228,236).
edge(228,237).
edge(228,238).
edge(228,244).
edge(228,248).
edge(228,249).
edge(228,250).
edge(229,230).
edge(229,231).
edge(229,232).
edge(229,233).
edge(229,235).
edge(229,236).
edge(229,237).
edge(229,238).
edge(229,239).
edge(229,240).
edge(229,241).
edge(229,242).
edge(229,243).
edge(229,244).
edge(229,245).
edge(229,246).
edge(229,247).
edge(229,248).
edge(229,250).
edge(230,231).
edge(230,232).
edge(230,233).
edge(230,234).
edge(230,235).
edge(230,238).
edge(230,239).
edge(230,240).
edge(230,241).
edge(230,244).
edge(230,245).
edge(230,246).
edge(230,247).
edge(230,249).
edge(231,233).
edge(231,234).
edge(231,235).
edge(231,238).
edge(231,239).
edge(231,240).
edge(231,241).
edge(231,242).
edge(231,243).
edge(231,244).
edge(231,245).
edge(231,246).
edge(231,247).
edge(231,249).
edge(232,233).
edge(232,234).
edge(232,235).
edge(232,240).
edge(232,241).
edge(232,245).
edge(232,247).
edge(232,248).
edge(232,250).
edge(233,234).
edge(233,235).
edge(233,237).
edge(233,241).
edge(233,242).
edge(233,243).
edge(233,244).
edge(233,245).
edge(233,246).
edge(233,247).
edge(233,248).
edge(233,249).
edge(233,250).
edge(234,235).
edge(234,238).
edge(234,239).
edge(234,240).
edge(234,241).
edge(234,242).
edge(234,244).
edge(234,245).
edge(234,246).
edge(234,247).
edge(234,249).
edge(234,250).
edge(235,237).
edge(235,238).
edge(235,240).
edge(235,241).
edge(235,242).
edge(235,243).
edge(235,244).
edge(235,245).
edge(235,246).
edge(235,247).
edge(235,248).
edge(235,249).
edge(236,239).
edge(236,240).
edge(236,242).
edge(236,244).
edge(236,248).
edge(236,250).
edge(237,239).
edge(237,240).
edge(237,241).
edge(237,242).
edge(237,243).
edge(237,245).
edge(237,246).
edge(237,248).
edge(237,249).
edge(237,250).
edge(238,240).
edge(238,241).
edge(238,242).
edge(238,244).
edge(238,247).
edge(238,248).
edge(238,250).
edge(239,240).
edge(239,241).
edge(239,242).
edge(239,243).
edge(239,244).
edge(239,245).
edge(239,246).
edge(240,241).
edge(240,244).
edge(240,245).
edge(240,247).
edge(240,248).
edge(240,249).
edge(240,250).
edge(241,242).
edge(241,243).
edge(241,246).
edge(241,248).
edge(241,249).
edge(242,243).
edge(242,244).
edge(242,245).
edge(242,246).
edge(242,247).
edge(242,248).
edge(242,249).
edge(243,245).
edge(243,246).
edge(243,247).
edge(243,249).
edge(244,245).
edge(244,246).
edge(244,248).
edge(245,246).
edge(245,247).
edge(245,249).
edge(246,247).
edge(246,248).
edge(246,249).
edge(246,250).
edge(247,248).
edge(247,249).
edge(248,249).
edge(248,250).
edge(249,250).
