vtx(1..90).
edge(1, 4).
len(1, 4, 63).
edge(1, 63).
len(1, 63, 87).
edge(1, 13).
len(1, 13, 46).
edge(1, 19).
len(1, 19, 91).
edge(1, 87).
len(1, 87, 24).
arc(1, 31).
edge(1, 56).
len(1, 56, 73).
edge(2, 89).
len(2, 89, 52).
edge(2, 80).
len(2, 80, 34).
edge(2, 77).
len(2, 77, 95).
arc(2, 81).
edge(2, 71).
len(2, 71, 27).
edge(2, 90).
len(2, 90, 34).
arc(86, 2).
edge(3, 29).
len(3, 29, 98).
edge(3, 85).
len(3, 85, 35).
edge(3, 14).
len(3, 14, 99).
arc(37, 4).
edge(4, 85).
len(4, 85, 19).
edge(4, 61).
len(4, 61, 87).
edge(4, 8).
len(4, 8, 14).
edge(4, 7).
len(4, 7, 31).
edge(4, 10).
len(4, 10, 5).
edge(4, 51).
len(4, 51, 76).
edge(5, 63).
len(5, 63, 6).
edge(5, 31).
len(5, 31, 24).
edge(5, 35).
len(5, 35, 81).
edge(5, 71).
len(5, 71, 88).
edge(5, 45).
len(5, 45, 43).
edge(5, 13).
len(5, 13, 1).
edge(5, 40).
len(5, 40, 99).
edge(5, 36).
len(5, 36, 7).
edge(5, 67).
len(5, 67, 89).
edge(5, 58).
len(5, 58, 51).
edge(6, 62).
len(6, 62, 55).
edge(6, 70).
len(6, 70, 97).
edge(6, 26).
len(6, 26, 14).
edge(6, 68).
len(6, 68, 13).
edge(6, 42).
len(6, 42, 80).
edge(7, 8).
len(7, 8, 52).
edge(7, 54).
len(7, 54, 13).
edge(7, 29).
len(7, 29, 1).
edge(7, 11).
len(7, 11, 91).
edge(7, 59).
len(7, 59, 94).
edge(7, 49).
len(7, 49, 3).
edge(7, 18).
len(7, 18, 11).
edge(8, 75).
len(8, 75, 66).
edge(8, 50).
len(8, 50, 33).
edge(8, 17).
len(8, 17, 38).
edge(8, 90).
len(8, 90, 55).
arc(72, 8).
edge(8, 25).
len(8, 25, 21).
edge(8, 38).
len(8, 38, 32).
edge(9, 73).
len(9, 73, 86).
edge(9, 80).
len(9, 80, 76).
edge(9, 44).
len(9, 44, 71).
arc(9, 57).
arc(43, 9).
edge(9, 74).
len(9, 74, 79).
edge(9, 88).
len(9, 88, 87).
edge(9, 11).
len(9, 11, 17).
edge(10, 18).
len(10, 18, 26).
edge(10, 79).
len(10, 79, 61).
edge(10, 33).
len(10, 33, 17).
arc(23, 10).
edge(10, 17).
len(10, 17, 32).
edge(10, 16).
len(10, 16, 82).
edge(10, 29).
len(10, 29, 87).
edge(11, 66).
len(11, 66, 47).
edge(11, 87).
len(11, 87, 52).
edge(11, 21).
len(11, 21, 39).
arc(11, 52).
edge(11, 41).
len(11, 41, 71).
edge(11, 32).
len(11, 32, 42).
edge(11, 59).
len(11, 59, 45).
edge(12, 16).
len(12, 16, 5).
edge(12, 40).
len(12, 40, 84).
edge(12, 76).
len(12, 76, 7).
edge(12, 79).
len(12, 79, 37).
edge(12, 44).
len(12, 44, 100).
edge(12, 37).
len(12, 37, 86).
edge(12, 45).
len(12, 45, 24).
edge(12, 72).
len(12, 72, 25).
edge(13, 78).
len(13, 78, 52).
edge(13, 20).
len(13, 20, 3).
edge(13, 77).
len(13, 77, 25).
edge(13, 90).
len(13, 90, 94).
edge(13, 56).
len(13, 56, 13).
arc(13, 42).
edge(13, 43).
len(13, 43, 12).
edge(13, 88).
len(13, 88, 23).
edge(13, 76).
len(13, 76, 60).
edge(14, 32).
len(14, 32, 38).
edge(14, 60).
len(14, 60, 13).
edge(14, 64).
len(14, 64, 39).
edge(14, 72).
len(14, 72, 18).
edge(14, 44).
len(14, 44, 14).
edge(14, 42).
len(14, 42, 88).
edge(14, 70).
len(14, 70, 11).
edge(15, 88).
len(15, 88, 4).
edge(15, 39).
len(15, 39, 96).
edge(16, 85).
len(16, 85, 73).
edge(16, 46).
len(16, 46, 84).
edge(16, 32).
len(16, 32, 33).
edge(16, 29).
len(16, 29, 75).
arc(16, 69).
edge(16, 84).
len(16, 84, 70).
edge(16, 23).
len(16, 23, 93).
edge(16, 78).
len(16, 78, 4).
edge(17, 63).
len(17, 63, 76).
edge(17, 20).
len(17, 20, 62).
arc(67, 17).
edge(17, 84).
len(17, 84, 43).
edge(17, 43).
len(17, 43, 60).
edge(18, 87).
len(18, 87, 70).
edge(18, 65).
len(18, 65, 9).
edge(18, 70).
len(18, 70, 83).
edge(18, 86).
len(18, 86, 59).
edge(19, 50).
len(19, 50, 52).
edge(19, 61).
len(19, 61, 69).
edge(19, 31).
len(19, 31, 77).
edge(19, 87).
len(19, 87, 62).
edge(19, 29).
len(19, 29, 50).
edge(19, 23).
len(19, 23, 3).
edge(19, 44).
len(19, 44, 47).
edge(20, 23).
len(20, 23, 36).
edge(20, 49).
len(20, 49, 71).
edge(20, 77).
len(20, 77, 9).
edge(20, 70).
len(20, 70, 58).
edge(20, 74).
len(20, 74, 80).
edge(21, 57).
len(21, 57, 12).
arc(21, 85).
edge(21, 27).
len(21, 27, 81).
edge(21, 61).
len(21, 61, 56).
edge(21, 23).
len(21, 23, 16).
edge(21, 66).
len(21, 66, 59).
edge(21, 40).
len(21, 40, 72).
edge(21, 30).
len(21, 30, 95).
arc(79, 22).
edge(22, 54).
len(22, 54, 6).
edge(22, 90).
len(22, 90, 34).
arc(22, 76).
edge(23, 39).
len(23, 39, 54).
edge(23, 59).
len(23, 59, 87).
arc(66, 23).
edge(23, 43).
len(23, 43, 75).
edge(23, 80).
len(23, 80, 30).
edge(23, 24).
len(23, 24, 10).
edge(23, 74).
len(23, 74, 54).
edge(23, 53).
len(23, 53, 67).
edge(23, 35).
len(23, 35, 84).
edge(24, 56).
len(24, 56, 99).
edge(25, 56).
len(25, 56, 14).
edge(25, 75).
len(25, 75, 14).
edge(25, 62).
len(25, 62, 60).
edge(25, 71).
len(25, 71, 56).
edge(25, 68).
len(25, 68, 86).
edge(25, 58).
len(25, 58, 9).
edge(25, 90).
len(25, 90, 74).
arc(30, 25).
edge(25, 83).
len(25, 83, 26).
edge(26, 52).
len(26, 52, 33).
edge(26, 51).
len(26, 51, 22).
edge(27, 44).
len(27, 44, 67).
edge(27, 74).
len(27, 74, 1).
edge(27, 40).
len(27, 40, 13).
edge(27, 76).
len(27, 76, 66).
edge(27, 39).
len(27, 39, 12).
edge(27, 52).
len(27, 52, 86).
edge(28, 84).
len(28, 84, 38).
edge(28, 38).
len(28, 38, 87).
edge(28, 51).
len(28, 51, 16).
edge(28, 29).
len(28, 29, 65).
edge(28, 82).
len(28, 82, 74).
edge(28, 88).
len(28, 88, 88).
edge(29, 30).
len(29, 30, 49).
edge(29, 36).
len(29, 36, 69).
edge(29, 71).
len(29, 71, 7).
edge(29, 47).
len(29, 47, 77).
arc(32, 29).
edge(29, 41).
len(29, 41, 1).
edge(29, 75).
len(29, 75, 49).
edge(30, 46).
len(30, 46, 95).
edge(30, 52).
len(30, 52, 61).
edge(30, 75).
len(30, 75, 63).
edge(30, 39).
len(30, 39, 100).
edge(30, 88).
len(30, 88, 34).
arc(56, 30).
edge(31, 88).
len(31, 88, 16).
edge(31, 39).
len(31, 39, 23).
edge(31, 77).
len(31, 77, 91).
edge(31, 36).
len(31, 36, 9).
edge(31, 66).
len(31, 66, 93).
arc(31, 78).
edge(31, 49).
len(31, 49, 78).
arc(50, 32).
edge(32, 83).
len(32, 83, 69).
edge(32, 79).
len(32, 79, 70).
edge(33, 61).
len(33, 61, 40).
edge(33, 49).
len(33, 49, 11).
edge(33, 57).
len(33, 57, 87).
edge(33, 68).
len(33, 68, 37).
edge(33, 60).
len(33, 60, 76).
edge(33, 75).
len(33, 75, 31).
edge(33, 36).
len(33, 36, 33).
edge(33, 66).
len(33, 66, 55).
edge(33, 74).
len(33, 74, 34).
edge(34, 78).
len(34, 78, 96).
edge(34, 69).
len(34, 69, 34).
edge(34, 67).
len(34, 67, 59).
edge(34, 60).
len(34, 60, 69).
edge(34, 68).
len(34, 68, 27).
edge(35, 43).
len(35, 43, 34).
edge(35, 47).
len(35, 47, 2).
edge(35, 79).
len(35, 79, 67).
edge(35, 42).
len(35, 42, 15).
edge(36, 75).
len(36, 75, 93).
edge(36, 71).
len(36, 71, 2).
edge(36, 61).
len(36, 61, 24).
arc(65, 36).
edge(36, 67).
len(36, 67, 98).
edge(37, 77).
len(37, 77, 50).
edge(37, 64).
len(37, 64, 53).
edge(38, 59).
len(38, 59, 55).
edge(38, 82).
len(38, 82, 92).
edge(39, 84).
len(39, 84, 30).
arc(42, 39).
edge(39, 54).
len(39, 54, 32).
edge(39, 85).
len(39, 85, 29).
edge(39, 73).
len(39, 73, 32).
edge(39, 82).
len(39, 82, 47).
edge(40, 73).
len(40, 73, 75).
edge(40, 62).
len(40, 62, 92).
edge(40, 42).
len(40, 42, 96).
edge(40, 88).
len(40, 88, 50).
edge(41, 59).
len(41, 59, 14).
edge(41, 68).
len(41, 68, 3).
edge(41, 46).
len(41, 46, 51).
edge(41, 64).
len(41, 64, 79).
edge(41, 84).
len(41, 84, 97).
edge(42, 87).
len(42, 87, 58).
edge(42, 51).
len(42, 51, 31).
edge(42, 49).
len(42, 49, 24).
edge(42, 60).
len(42, 60, 100).
edge(42, 63).
len(42, 63, 65).
edge(42, 48).
len(42, 48, 91).
edge(42, 69).
len(42, 69, 84).
edge(42, 62).
len(42, 62, 53).
edge(42, 58).
len(42, 58, 45).
edge(43, 79).
len(43, 79, 1).
edge(43, 55).
len(43, 55, 17).
edge(43, 88).
len(43, 88, 2).
edge(43, 57).
len(43, 57, 55).
edge(43, 71).
len(43, 71, 70).
edge(44, 66).
len(44, 66, 96).
edge(44, 52).
len(44, 52, 14).
edge(44, 81).
len(44, 81, 71).
edge(44, 58).
len(44, 58, 17).
edge(44, 67).
len(44, 67, 81).
edge(44, 83).
len(44, 83, 14).
edge(44, 59).
len(44, 59, 81).
edge(45, 74).
len(45, 74, 71).
edge(45, 79).
len(45, 79, 36).
edge(45, 80).
len(45, 80, 19).
edge(45, 60).
len(45, 60, 92).
edge(46, 48).
len(46, 48, 96).
edge(46, 84).
len(46, 84, 44).
arc(76, 47).
edge(47, 82).
len(47, 82, 23).
edge(48, 52).
len(48, 52, 71).
edge(48, 51).
len(48, 51, 98).
edge(48, 53).
len(48, 53, 35).
edge(48, 65).
len(48, 65, 64).
edge(48, 82).
len(48, 82, 13).
edge(49, 59).
len(49, 59, 73).
edge(49, 81).
len(49, 81, 65).
edge(49, 51).
len(49, 51, 31).
edge(49, 66).
len(49, 66, 100).
edge(50, 65).
len(50, 65, 48).
edge(50, 67).
len(50, 67, 5).
edge(50, 71).
len(50, 71, 2).
edge(50, 75).
len(50, 75, 4).
edge(51, 64).
len(51, 64, 28).
edge(51, 70).
len(51, 70, 94).
edge(52, 60).
len(52, 60, 35).
edge(52, 82).
len(52, 82, 88).
edge(52, 68).
len(52, 68, 5).
edge(53, 59).
len(53, 59, 30).
edge(53, 73).
len(53, 73, 26).
edge(53, 69).
len(53, 69, 72).
edge(53, 74).
len(53, 74, 60).
edge(53, 82).
len(53, 82, 74).
edge(53, 76).
len(53, 76, 36).
edge(54, 76).
len(54, 76, 4).
edge(54, 58).
len(54, 58, 19).
edge(54, 87).
len(54, 87, 10).
edge(55, 69).
len(55, 69, 12).
edge(55, 67).
len(55, 67, 13).
edge(55, 58).
len(55, 58, 48).
edge(55, 77).
len(55, 77, 18).
edge(56, 61).
len(56, 61, 96).
edge(57, 66).
len(57, 66, 68).
edge(57, 76).
len(57, 76, 13).
edge(57, 72).
len(57, 72, 63).
edge(58, 77).
len(58, 77, 20).
arc(61, 58).
edge(58, 65).
len(58, 65, 40).
edge(58, 66).
len(58, 66, 32).
edge(58, 80).
len(58, 80, 77).
arc(60, 67).
arc(63, 60).
edge(61, 81).
len(61, 81, 7).
arc(62, 72).
edge(63, 67).
len(63, 67, 88).
edge(63, 86).
len(63, 86, 77).
edge(63, 88).
len(63, 88, 61).
edge(63, 79).
len(63, 79, 68).
edge(64, 66).
len(64, 66, 8).
edge(64, 69).
len(64, 69, 2).
edge(64, 86).
len(64, 86, 8).
arc(78, 65).
edge(65, 66).
len(65, 66, 27).
edge(67, 81).
len(67, 81, 68).
edge(68, 78).
len(68, 78, 14).
edge(68, 72).
len(68, 72, 10).
edge(69, 71).
len(69, 71, 58).
arc(82, 70).
edge(70, 87).
len(70, 87, 98).
edge(70, 80).
len(70, 80, 83).
edge(70, 75).
len(70, 75, 62).
edge(71, 79).
len(71, 79, 37).
arc(84, 71).
edge(71, 82).
len(71, 82, 83).
edge(72, 79).
len(72, 79, 20).
edge(72, 75).
len(72, 75, 62).
edge(73, 83).
len(73, 83, 72).
edge(73, 90).
len(73, 90, 67).
edge(74, 80).
len(74, 80, 13).
edge(74, 85).
len(74, 85, 49).
edge(74, 78).
len(74, 78, 42).
edge(75, 79).
len(75, 79, 62).
edge(76, 86).
len(76, 86, 40).
edge(78, 81).
len(78, 81, 47).
edge(78, 86).
len(78, 86, 17).
edge(79, 89).
len(79, 89, 53).
edge(79, 80).
len(79, 80, 33).
arc(81, 87).
edge(81, 88).
len(81, 88, 29).
edge(82, 85).
len(82, 85, 64).
edge(82, 90).
len(82, 90, 76).
