vtx(1..480).
edge(1, 231).
len(1, 231, 24).
edge(1, 401).
len(1, 401, 63).
edge(1, 400).
len(1, 400, 19).
edge(2, 292).
len(2, 292, 76).
edge(2, 190).
len(2, 190, 97).
edge(3, 213).
len(3, 213, 62).
arc(433, 3).
edge(4, 47).
len(4, 47, 23).
edge(4, 370).
len(4, 370, 77).
edge(4, 443).
len(4, 443, 6).
edge(4, 471).
len(4, 471, 48).
edge(4, 278).
len(4, 278, 41).
edge(4, 169).
len(4, 169, 10).
edge(4, 177).
len(4, 177, 32).
edge(5, 371).
len(5, 371, 41).
edge(5, 314).
len(5, 314, 71).
edge(5, 35).
len(5, 35, 95).
edge(5, 253).
len(5, 253, 64).
edge(5, 133).
len(5, 133, 74).
edge(5, 150).
len(5, 150, 97).
edge(6, 155).
len(6, 155, 31).
edge(6, 462).
len(6, 462, 1).
edge(6, 39).
len(6, 39, 47).
edge(6, 219).
len(6, 219, 32).
edge(6, 423).
len(6, 423, 76).
arc(6, 105).
edge(7, 210).
len(7, 210, 75).
edge(7, 220).
len(7, 220, 39).
edge(7, 126).
len(7, 126, 49).
edge(8, 80).
len(8, 80, 58).
edge(9, 407).
len(9, 407, 28).
edge(9, 116).
len(9, 116, 93).
edge(9, 73).
len(9, 73, 90).
edge(10, 480).
len(10, 480, 23).
edge(11, 231).
len(11, 231, 58).
edge(11, 144).
len(11, 144, 57).
edge(11, 188).
len(11, 188, 71).
edge(11, 54).
len(11, 54, 84).
edge(11, 147).
len(11, 147, 9).
edge(12, 146).
len(12, 146, 7).
edge(12, 130).
len(12, 130, 10).
edge(12, 304).
len(12, 304, 24).
arc(12, 142).
edge(13, 29).
len(13, 29, 88).
edge(13, 285).
len(13, 285, 20).
edge(14, 87).
len(14, 87, 5).
edge(14, 318).
len(14, 318, 66).
edge(14, 336).
len(14, 336, 30).
edge(15, 380).
len(15, 380, 88).
edge(15, 386).
len(15, 386, 22).
edge(15, 357).
len(15, 357, 96).
edge(15, 99).
len(15, 99, 81).
edge(15, 457).
len(15, 457, 66).
edge(16, 359).
len(16, 359, 100).
edge(16, 328).
len(16, 328, 7).
edge(16, 225).
len(16, 225, 29).
edge(16, 288).
len(16, 288, 55).
edge(16, 336).
len(16, 336, 51).
edge(17, 287).
len(17, 287, 79).
edge(17, 227).
len(17, 227, 20).
edge(17, 237).
len(17, 237, 2).
edge(17, 439).
len(17, 439, 8).
edge(17, 264).
len(17, 264, 48).
edge(18, 279).
len(18, 279, 72).
edge(18, 410).
len(18, 410, 96).
edge(18, 214).
len(18, 214, 60).
edge(18, 147).
len(18, 147, 68).
edge(18, 409).
len(18, 409, 80).
edge(19, 320).
len(19, 320, 13).
edge(20, 326).
len(20, 326, 29).
edge(20, 164).
len(20, 164, 79).
edge(20, 94).
len(20, 94, 34).
edge(20, 437).
len(20, 437, 25).
edge(20, 358).
len(20, 358, 33).
edge(21, 245).
len(21, 245, 12).
edge(21, 332).
len(21, 332, 92).
edge(21, 383).
len(21, 383, 39).
arc(21, 145).
arc(94, 22).
edge(22, 421).
len(22, 421, 69).
edge(23, 315).
len(23, 315, 64).
edge(23, 478).
len(23, 478, 23).
arc(204, 23).
edge(23, 239).
len(23, 239, 43).
edge(23, 325).
len(23, 325, 39).
edge(24, 454).
len(24, 454, 64).
edge(24, 381).
len(24, 381, 73).
edge(25, 256).
len(25, 256, 59).
edge(25, 203).
len(25, 203, 71).
edge(25, 181).
len(25, 181, 87).
edge(25, 385).
len(25, 385, 8).
edge(26, 56).
len(26, 56, 74).
arc(275, 26).
edge(26, 44).
len(26, 44, 85).
edge(26, 249).
len(26, 249, 4).
edge(26, 347).
len(26, 347, 72).
edge(27, 213).
len(27, 213, 100).
edge(28, 145).
len(28, 145, 11).
edge(28, 38).
len(28, 38, 26).
arc(169, 29).
edge(29, 447).
len(29, 447, 18).
edge(29, 343).
len(29, 343, 19).
edge(29, 312).
len(29, 312, 35).
edge(30, 217).
len(30, 217, 93).
edge(30, 470).
len(30, 470, 96).
edge(31, 52).
len(31, 52, 59).
edge(31, 251).
len(31, 251, 11).
edge(31, 435).
len(31, 435, 73).
edge(32, 320).
len(32, 320, 55).
edge(32, 302).
len(32, 302, 18).
edge(32, 215).
len(32, 215, 27).
edge(33, 290).
len(33, 290, 14).
edge(33, 40).
len(33, 40, 10).
edge(33, 182).
len(33, 182, 84).
edge(33, 153).
len(33, 153, 37).
edge(34, 261).
len(34, 261, 25).
edge(34, 447).
len(34, 447, 34).
edge(34, 334).
len(34, 334, 19).
edge(34, 446).
len(34, 446, 96).
edge(34, 370).
len(34, 370, 16).
edge(34, 49).
len(34, 49, 23).
edge(34, 94).
len(34, 94, 15).
edge(34, 131).
len(34, 131, 90).
edge(35, 40).
len(35, 40, 16).
edge(36, 183).
len(36, 183, 51).
edge(36, 278).
len(36, 278, 9).
edge(36, 272).
len(36, 272, 38).
edge(36, 61).
len(36, 61, 94).
edge(37, 448).
len(37, 448, 75).
edge(37, 58).
len(37, 58, 76).
edge(38, 322).
len(38, 322, 72).
edge(38, 240).
len(38, 240, 97).
edge(38, 62).
len(38, 62, 30).
edge(39, 93).
len(39, 93, 23).
edge(39, 53).
len(39, 53, 10).
edge(39, 177).
len(39, 177, 85).
edge(41, 372).
len(41, 372, 87).
edge(41, 373).
len(41, 373, 46).
edge(41, 300).
len(41, 300, 8).
edge(41, 384).
len(41, 384, 95).
edge(41, 303).
len(41, 303, 70).
edge(41, 109).
len(41, 109, 49).
edge(41, 116).
len(41, 116, 72).
arc(42, 407).
edge(43, 86).
len(43, 86, 26).
edge(43, 442).
len(43, 442, 35).
edge(43, 267).
len(43, 267, 15).
edge(43, 322).
len(43, 322, 5).
arc(75, 43).
edge(44, 452).
len(44, 452, 18).
edge(45, 433).
len(45, 433, 18).
edge(45, 283).
len(45, 283, 30).
edge(45, 215).
len(45, 215, 37).
edge(45, 246).
len(45, 246, 56).
edge(45, 450).
len(45, 450, 29).
edge(46, 426).
len(46, 426, 42).
edge(46, 261).
len(46, 261, 69).
edge(46, 298).
len(46, 298, 78).
edge(46, 101).
len(46, 101, 90).
edge(46, 465).
len(46, 465, 24).
edge(46, 131).
len(46, 131, 92).
edge(47, 337).
len(47, 337, 86).
edge(47, 279).
len(47, 279, 23).
edge(47, 295).
len(47, 295, 94).
edge(47, 396).
len(47, 396, 18).
edge(47, 76).
len(47, 76, 87).
edge(47, 161).
len(47, 161, 4).
edge(47, 77).
len(47, 77, 51).
edge(48, 387).
len(48, 387, 4).
edge(49, 217).
len(49, 217, 12).
edge(49, 74).
len(49, 74, 46).
edge(50, 278).
len(50, 278, 61).
edge(51, 301).
len(51, 301, 100).
edge(51, 229).
len(51, 229, 72).
arc(211, 51).
edge(51, 300).
len(51, 300, 14).
edge(51, 471).
len(51, 471, 40).
edge(52, 162).
len(52, 162, 81).
edge(52, 384).
len(52, 384, 69).
edge(52, 122).
len(52, 122, 5).
edge(52, 218).
len(52, 218, 74).
edge(53, 353).
len(53, 353, 17).
edge(53, 394).
len(53, 394, 70).
edge(53, 326).
len(53, 326, 69).
edge(53, 330).
len(53, 330, 24).
edge(54, 77).
len(54, 77, 17).
edge(54, 458).
len(54, 458, 34).
edge(54, 207).
len(54, 207, 64).
arc(223, 54).
edge(54, 212).
len(54, 212, 84).
edge(54, 324).
len(54, 324, 82).
edge(54, 286).
len(54, 286, 59).
edge(54, 136).
len(54, 136, 62).
edge(54, 71).
len(54, 71, 35).
arc(55, 224).
edge(55, 158).
len(55, 158, 8).
edge(55, 422).
len(55, 422, 84).
edge(55, 281).
len(55, 281, 23).
edge(55, 345).
len(55, 345, 75).
edge(55, 89).
len(55, 89, 56).
edge(56, 173).
len(56, 173, 1).
edge(56, 268).
len(56, 268, 24).
edge(56, 135).
len(56, 135, 39).
edge(56, 452).
len(56, 452, 99).
edge(56, 146).
len(56, 146, 100).
edge(56, 182).
len(56, 182, 45).
edge(56, 318).
len(56, 318, 33).
edge(57, 184).
len(57, 184, 46).
arc(57, 369).
edge(57, 218).
len(57, 218, 52).
edge(57, 128).
len(57, 128, 60).
edge(57, 196).
len(57, 196, 83).
edge(58, 109).
len(58, 109, 22).
edge(58, 451).
len(58, 451, 99).
edge(58, 287).
len(58, 287, 63).
edge(58, 268).
len(58, 268, 95).
edge(59, 320).
len(59, 320, 62).
edge(59, 197).
len(59, 197, 99).
edge(59, 394).
len(59, 394, 44).
edge(60, 202).
len(60, 202, 63).
edge(60, 309).
len(60, 309, 44).
edge(60, 267).
len(60, 267, 39).
edge(60, 301).
len(60, 301, 60).
edge(61, 285).
len(61, 285, 6).
edge(61, 284).
len(61, 284, 34).
edge(61, 313).
len(61, 313, 46).
edge(62, 118).
len(62, 118, 37).
edge(62, 143).
len(62, 143, 13).
edge(62, 478).
len(62, 478, 48).
edge(62, 291).
len(62, 291, 97).
edge(63, 341).
len(63, 341, 72).
arc(138, 63).
edge(64, 166).
len(64, 166, 86).
edge(64, 95).
len(64, 95, 85).
edge(64, 394).
len(64, 394, 6).
edge(64, 307).
len(64, 307, 19).
edge(64, 272).
len(64, 272, 72).
edge(64, 165).
len(64, 165, 18).
edge(65, 384).
len(65, 384, 32).
edge(65, 358).
len(65, 358, 51).
arc(65, 300).
edge(65, 292).
len(65, 292, 52).
edge(65, 421).
len(65, 421, 50).
edge(66, 269).
len(66, 269, 57).
edge(66, 346).
len(66, 346, 5).
edge(67, 474).
len(67, 474, 83).
edge(67, 384).
len(67, 384, 60).
edge(68, 426).
len(68, 426, 8).
edge(68, 361).
len(68, 361, 54).
edge(68, 188).
len(68, 188, 59).
edge(69, 411).
len(69, 411, 8).
arc(69, 183).
edge(69, 352).
len(69, 352, 46).
edge(69, 132).
len(69, 132, 74).
edge(69, 91).
len(69, 91, 16).
edge(70, 452).
len(70, 452, 79).
edge(70, 150).
len(70, 150, 82).
edge(70, 241).
len(70, 241, 80).
edge(71, 309).
len(71, 309, 35).
edge(71, 333).
len(71, 333, 49).
edge(71, 477).
len(71, 477, 1).
edge(71, 315).
len(71, 315, 67).
edge(72, 372).
len(72, 372, 6).
edge(72, 87).
len(72, 87, 95).
edge(72, 191).
len(72, 191, 42).
edge(72, 420).
len(72, 420, 87).
edge(72, 387).
len(72, 387, 50).
edge(73, 114).
len(73, 114, 78).
edge(73, 273).
len(73, 273, 13).
edge(73, 385).
len(73, 385, 57).
edge(74, 231).
len(74, 231, 24).
edge(74, 390).
len(74, 390, 42).
edge(74, 103).
len(74, 103, 98).
edge(75, 395).
len(75, 395, 72).
edge(75, 320).
len(75, 320, 73).
edge(75, 184).
len(75, 184, 4).
edge(75, 181).
len(75, 181, 37).
edge(76, 370).
len(76, 370, 46).
edge(76, 186).
len(76, 186, 41).
edge(76, 433).
len(76, 433, 13).
edge(76, 192).
len(76, 192, 98).
edge(76, 471).
len(76, 471, 9).
edge(76, 220).
len(76, 220, 82).
edge(77, 332).
len(77, 332, 11).
edge(77, 436).
len(77, 436, 47).
edge(77, 89).
len(77, 89, 21).
edge(77, 176).
len(77, 176, 43).
edge(78, 396).
len(78, 396, 41).
edge(78, 286).
len(78, 286, 50).
edge(78, 394).
len(78, 394, 81).
edge(79, 87).
len(79, 87, 45).
edge(79, 277).
len(79, 277, 39).
edge(79, 382).
len(79, 382, 22).
edge(79, 85).
len(79, 85, 81).
edge(79, 212).
len(79, 212, 52).
edge(79, 314).
len(79, 314, 30).
edge(79, 454).
len(79, 454, 75).
edge(80, 187).
len(80, 187, 12).
edge(80, 96).
len(80, 96, 86).
edge(80, 238).
len(80, 238, 10).
edge(80, 441).
len(80, 441, 29).
edge(81, 342).
len(81, 342, 49).
edge(81, 348).
len(81, 348, 63).
edge(82, 142).
len(82, 142, 8).
edge(82, 290).
len(82, 290, 72).
edge(82, 259).
len(82, 259, 41).
edge(82, 381).
len(82, 381, 95).
edge(83, 321).
len(83, 321, 75).
edge(83, 166).
len(83, 166, 98).
arc(83, 135).
edge(84, 350).
len(84, 350, 53).
arc(472, 84).
edge(84, 326).
len(84, 326, 23).
edge(84, 267).
len(84, 267, 65).
edge(85, 469).
len(85, 469, 38).
edge(85, 359).
len(85, 359, 14).
edge(86, 370).
len(86, 370, 72).
arc(86, 169).
edge(87, 466).
len(87, 466, 99).
edge(87, 318).
len(87, 318, 53).
edge(87, 472).
len(87, 472, 77).
edge(87, 461).
len(87, 461, 16).
edge(87, 95).
len(87, 95, 45).
edge(87, 88).
len(87, 88, 90).
edge(88, 215).
len(88, 215, 51).
edge(89, 401).
len(89, 401, 94).
edge(89, 235).
len(89, 235, 77).
edge(89, 360).
len(89, 360, 34).
edge(89, 339).
len(89, 339, 3).
edge(90, 209).
len(90, 209, 3).
edge(91, 241).
len(91, 241, 36).
edge(91, 377).
len(91, 377, 98).
edge(91, 102).
len(91, 102, 46).
edge(91, 322).
len(91, 322, 45).
edge(91, 363).
len(91, 363, 40).
arc(235, 92).
edge(92, 159).
len(92, 159, 81).
edge(92, 473).
len(92, 473, 63).
edge(92, 352).
len(92, 352, 18).
edge(92, 246).
len(92, 246, 31).
edge(92, 114).
len(92, 114, 31).
edge(93, 390).
len(93, 390, 46).
edge(93, 380).
len(93, 380, 18).
edge(93, 339).
len(93, 339, 21).
arc(180, 93).
edge(94, 382).
len(94, 382, 43).
edge(95, 403).
len(95, 403, 84).
edge(95, 261).
len(95, 261, 63).
edge(95, 277).
len(95, 277, 17).
edge(96, 225).
len(96, 225, 7).
edge(96, 169).
len(96, 169, 94).
edge(96, 373).
len(96, 373, 9).
edge(97, 258).
len(97, 258, 71).
arc(328, 97).
edge(97, 143).
len(97, 143, 27).
edge(97, 362).
len(97, 362, 93).
edge(97, 308).
len(97, 308, 49).
edge(97, 272).
len(97, 272, 46).
edge(98, 183).
len(98, 183, 81).
edge(98, 371).
len(98, 371, 26).
arc(98, 277).
edge(98, 106).
len(98, 106, 22).
edge(98, 334).
len(98, 334, 95).
edge(99, 131).
len(99, 131, 58).
edge(99, 277).
len(99, 277, 2).
edge(99, 295).
len(99, 295, 15).
edge(99, 223).
len(99, 223, 78).
edge(99, 150).
len(99, 150, 93).
arc(100, 250).
edge(100, 334).
len(100, 334, 49).
edge(100, 429).
len(100, 429, 31).
edge(101, 260).
len(101, 260, 60).
edge(101, 258).
len(101, 258, 25).
edge(101, 353).
len(101, 353, 23).
edge(101, 449).
len(101, 449, 33).
edge(102, 229).
len(102, 229, 40).
edge(102, 380).
len(102, 380, 85).
edge(102, 148).
len(102, 148, 22).
edge(102, 324).
len(102, 324, 20).
edge(102, 336).
len(102, 336, 7).
edge(102, 162).
len(102, 162, 62).
edge(103, 333).
len(103, 333, 3).
edge(103, 121).
len(103, 121, 61).
edge(103, 108).
len(103, 108, 26).
edge(103, 276).
len(103, 276, 26).
edge(104, 177).
len(104, 177, 18).
edge(104, 122).
len(104, 122, 32).
edge(105, 154).
len(105, 154, 97).
edge(105, 349).
len(105, 349, 100).
edge(105, 267).
len(105, 267, 15).
edge(106, 114).
len(106, 114, 33).
edge(106, 399).
len(106, 399, 50).
edge(106, 271).
len(106, 271, 76).
edge(106, 341).
len(106, 341, 34).
edge(106, 156).
len(106, 156, 23).
edge(107, 135).
len(107, 135, 14).
edge(107, 344).
len(107, 344, 88).
edge(108, 250).
len(108, 250, 77).
edge(108, 367).
len(108, 367, 75).
edge(109, 185).
len(109, 185, 97).
edge(109, 479).
len(109, 479, 67).
edge(109, 146).
len(109, 146, 80).
edge(109, 411).
len(109, 411, 56).
arc(110, 363).
edge(110, 259).
len(110, 259, 24).
edge(110, 340).
len(110, 340, 79).
edge(111, 277).
len(111, 277, 16).
edge(111, 476).
len(111, 476, 45).
edge(112, 233).
len(112, 233, 34).
edge(113, 399).
len(113, 399, 43).
edge(114, 412).
len(114, 412, 60).
edge(114, 432).
len(114, 432, 9).
edge(114, 299).
len(114, 299, 93).
edge(114, 473).
len(114, 473, 32).
edge(114, 217).
len(114, 217, 59).
edge(115, 343).
len(115, 343, 18).
arc(115, 214).
edge(117, 464).
len(117, 464, 38).
edge(117, 373).
len(117, 373, 74).
edge(118, 402).
len(118, 402, 55).
edge(118, 256).
len(118, 256, 41).
edge(119, 335).
len(119, 335, 44).
edge(119, 373).
len(119, 373, 34).
edge(120, 463).
len(120, 463, 25).
edge(120, 328).
len(120, 328, 1).
edge(120, 255).
len(120, 255, 53).
edge(120, 454).
len(120, 454, 46).
edge(121, 304).
len(121, 304, 97).
edge(121, 308).
len(121, 308, 43).
edge(121, 271).
len(121, 271, 13).
edge(122, 239).
len(122, 239, 86).
edge(122, 271).
len(122, 271, 29).
edge(122, 142).
len(122, 142, 4).
edge(122, 345).
len(122, 345, 7).
edge(123, 148).
len(123, 148, 3).
edge(123, 451).
len(123, 451, 91).
edge(123, 397).
len(123, 397, 17).
edge(123, 193).
len(123, 193, 95).
edge(124, 327).
len(124, 327, 25).
edge(125, 382).
len(125, 382, 25).
arc(269, 125).
edge(125, 342).
len(125, 342, 90).
edge(125, 340).
len(125, 340, 42).
arc(131, 126).
edge(126, 271).
len(126, 271, 75).
edge(127, 478).
len(127, 478, 6).
edge(127, 233).
len(127, 233, 100).
edge(127, 343).
len(127, 343, 88).
edge(127, 358).
len(127, 358, 64).
edge(128, 254).
len(128, 254, 5).
edge(128, 388).
len(128, 388, 65).
edge(128, 473).
len(128, 473, 78).
arc(129, 380).
edge(129, 390).
len(129, 390, 98).
edge(129, 235).
len(129, 235, 34).
edge(129, 177).
len(129, 177, 59).
edge(130, 150).
len(130, 150, 92).
edge(130, 227).
len(130, 227, 38).
edge(131, 148).
len(131, 148, 69).
edge(131, 461).
len(131, 461, 85).
edge(131, 331).
len(131, 331, 48).
edge(132, 430).
len(132, 430, 59).
edge(133, 449).
len(133, 449, 21).
edge(133, 340).
len(133, 340, 57).
edge(133, 201).
len(133, 201, 15).
arc(133, 162).
edge(133, 377).
len(133, 377, 94).
edge(134, 306).
len(134, 306, 94).
edge(135, 302).
len(135, 302, 31).
edge(135, 308).
len(135, 308, 86).
edge(136, 304).
len(136, 304, 92).
edge(136, 333).
len(136, 333, 89).
edge(136, 161).
len(136, 161, 31).
edge(136, 347).
len(136, 347, 10).
edge(136, 301).
len(136, 301, 50).
edge(136, 358).
len(136, 358, 27).
edge(137, 423).
len(137, 423, 4).
edge(137, 354).
len(137, 354, 83).
edge(137, 191).
len(137, 191, 98).
edge(138, 280).
len(138, 280, 94).
edge(139, 352).
len(139, 352, 3).
edge(139, 142).
len(139, 142, 54).
edge(140, 463).
len(140, 463, 38).
edge(140, 367).
len(140, 367, 96).
edge(140, 321).
len(140, 321, 90).
edge(140, 225).
len(140, 225, 74).
edge(141, 224).
len(141, 224, 83).
edge(142, 306).
len(142, 306, 10).
edge(142, 375).
len(142, 375, 39).
edge(142, 256).
len(142, 256, 18).
edge(142, 369).
len(142, 369, 41).
edge(142, 357).
len(142, 357, 92).
edge(142, 229).
len(142, 229, 6).
edge(142, 426).
len(142, 426, 78).
arc(143, 247).
edge(143, 193).
len(143, 193, 98).
edge(143, 455).
len(143, 455, 7).
edge(144, 437).
len(144, 437, 53).
edge(144, 316).
len(144, 316, 98).
edge(144, 471).
len(144, 471, 85).
edge(145, 265).
len(145, 265, 62).
edge(145, 242).
len(145, 242, 44).
edge(145, 330).
len(145, 330, 77).
edge(145, 452).
len(145, 452, 55).
edge(145, 465).
len(145, 465, 22).
edge(146, 423).
len(146, 423, 73).
edge(146, 216).
len(146, 216, 62).
arc(253, 146).
edge(146, 373).
len(146, 373, 94).
edge(146, 298).
len(146, 298, 35).
edge(147, 250).
len(147, 250, 15).
edge(147, 165).
len(147, 165, 27).
edge(147, 376).
len(147, 376, 82).
edge(148, 318).
len(148, 318, 26).
arc(312, 148).
edge(149, 337).
len(149, 337, 25).
edge(149, 456).
len(149, 456, 9).
edge(149, 311).
len(149, 311, 60).
edge(150, 326).
len(150, 326, 82).
edge(150, 412).
len(150, 412, 85).
edge(150, 299).
len(150, 299, 9).
edge(150, 208).
len(150, 208, 11).
edge(151, 467).
len(151, 467, 9).
edge(151, 288).
len(151, 288, 78).
edge(152, 378).
len(152, 378, 98).
edge(153, 293).
len(153, 293, 52).
edge(153, 326).
len(153, 326, 88).
edge(153, 478).
len(153, 478, 46).
edge(153, 300).
len(153, 300, 39).
edge(154, 326).
len(154, 326, 56).
edge(154, 259).
len(154, 259, 19).
edge(154, 359).
len(154, 359, 30).
edge(154, 292).
len(154, 292, 19).
arc(154, 346).
edge(154, 231).
len(154, 231, 47).
edge(154, 240).
len(154, 240, 47).
edge(155, 243).
len(155, 243, 49).
edge(155, 405).
len(155, 405, 57).
edge(156, 240).
len(156, 240, 33).
arc(156, 342).
edge(157, 467).
len(157, 467, 68).
edge(157, 435).
len(157, 435, 98).
edge(157, 214).
len(157, 214, 21).
edge(157, 277).
len(157, 277, 75).
edge(157, 276).
len(157, 276, 24).
edge(157, 437).
len(157, 437, 17).
edge(159, 175).
len(159, 175, 42).
edge(159, 415).
len(159, 415, 60).
edge(160, 235).
len(160, 235, 49).
edge(161, 307).
len(161, 307, 61).
edge(161, 255).
len(161, 255, 33).
edge(161, 376).
len(161, 376, 41).
edge(161, 193).
len(161, 193, 66).
edge(162, 301).
len(162, 301, 33).
edge(162, 393).
len(162, 393, 75).
edge(163, 373).
len(163, 373, 34).
edge(163, 476).
len(163, 476, 16).
edge(163, 353).
len(163, 353, 36).
edge(163, 258).
len(163, 258, 34).
edge(164, 338).
len(164, 338, 7).
edge(165, 186).
len(165, 186, 20).
edge(165, 208).
len(165, 208, 23).
edge(165, 376).
len(165, 376, 12).
edge(165, 282).
len(165, 282, 54).
edge(165, 236).
len(165, 236, 32).
edge(166, 229).
len(166, 229, 82).
edge(166, 254).
len(166, 254, 7).
edge(167, 409).
len(167, 409, 87).
arc(167, 450).
edge(168, 472).
len(168, 472, 87).
edge(168, 405).
len(168, 405, 22).
edge(169, 260).
len(169, 260, 41).
edge(169, 323).
len(169, 323, 75).
edge(169, 330).
len(169, 330, 35).
edge(169, 460).
len(169, 460, 34).
arc(174, 170).
edge(170, 303).
len(170, 303, 69).
edge(171, 461).
len(171, 461, 99).
edge(171, 310).
len(171, 310, 61).
edge(171, 389).
len(171, 389, 84).
edge(172, 395).
len(172, 395, 57).
edge(172, 427).
len(172, 427, 44).
edge(173, 291).
len(173, 291, 95).
edge(174, 323).
len(174, 323, 13).
edge(174, 180).
len(174, 180, 20).
edge(174, 436).
len(174, 436, 80).
edge(175, 380).
len(175, 380, 74).
edge(175, 275).
len(175, 275, 15).
edge(176, 314).
len(176, 314, 98).
edge(176, 321).
len(176, 321, 67).
edge(177, 421).
len(177, 421, 11).
arc(177, 321).
edge(178, 479).
len(178, 479, 72).
edge(178, 298).
len(178, 298, 14).
arc(179, 218).
edge(179, 246).
len(179, 246, 27).
edge(179, 449).
len(179, 449, 19).
edge(180, 372).
len(180, 372, 22).
edge(181, 280).
len(181, 280, 87).
edge(181, 309).
len(181, 309, 62).
edge(182, 274).
len(182, 274, 4).
edge(184, 479).
len(184, 479, 53).
arc(184, 442).
edge(185, 355).
len(185, 355, 93).
edge(186, 252).
len(186, 252, 34).
edge(187, 200).
len(187, 200, 53).
edge(187, 249).
len(187, 249, 28).
edge(187, 460).
len(187, 460, 70).
edge(187, 418).
len(187, 418, 91).
edge(187, 270).
len(187, 270, 92).
edge(188, 370).
len(188, 370, 23).
edge(188, 355).
len(188, 355, 59).
edge(188, 301).
len(188, 301, 98).
edge(188, 195).
len(188, 195, 39).
edge(189, 378).
len(189, 378, 37).
edge(189, 373).
len(189, 373, 90).
edge(189, 249).
len(189, 249, 80).
edge(189, 270).
len(189, 270, 97).
edge(190, 312).
len(190, 312, 2).
edge(191, 390).
len(191, 390, 28).
edge(191, 424).
len(191, 424, 2).
edge(191, 412).
len(191, 412, 93).
edge(193, 340).
len(193, 340, 32).
edge(193, 276).
len(193, 276, 78).
edge(193, 312).
len(193, 312, 88).
edge(193, 277).
len(193, 277, 54).
edge(193, 247).
len(193, 247, 67).
edge(194, 289).
len(194, 289, 91).
edge(194, 206).
len(194, 206, 12).
edge(195, 341).
len(195, 341, 19).
edge(196, 199).
len(196, 199, 76).
edge(196, 226).
len(196, 226, 27).
edge(196, 442).
len(196, 442, 22).
edge(197, 263).
len(197, 263, 29).
edge(197, 200).
len(197, 200, 33).
edge(197, 439).
len(197, 439, 60).
edge(197, 284).
len(197, 284, 33).
edge(197, 433).
len(197, 433, 6).
edge(198, 227).
len(198, 227, 72).
edge(199, 398).
len(199, 398, 100).
edge(199, 380).
len(199, 380, 86).
edge(200, 388).
len(200, 388, 83).
edge(200, 392).
len(200, 392, 76).
edge(200, 405).
len(200, 405, 53).
edge(200, 209).
len(200, 209, 57).
edge(201, 433).
len(201, 433, 90).
edge(201, 317).
len(201, 317, 60).
edge(202, 368).
len(202, 368, 13).
edge(202, 282).
len(202, 282, 50).
edge(202, 327).
len(202, 327, 4).
edge(203, 302).
len(203, 302, 16).
edge(203, 282).
len(203, 282, 21).
edge(203, 305).
len(203, 305, 39).
edge(204, 397).
len(204, 397, 98).
edge(204, 446).
len(204, 446, 16).
edge(204, 346).
len(204, 346, 13).
edge(204, 416).
len(204, 416, 81).
edge(205, 342).
len(205, 342, 98).
edge(205, 478).
len(205, 478, 64).
edge(207, 292).
len(207, 292, 66).
edge(207, 471).
len(207, 471, 8).
edge(207, 441).
len(207, 441, 29).
edge(208, 215).
len(208, 215, 58).
edge(208, 413).
len(208, 413, 59).
edge(208, 219).
len(208, 219, 16).
edge(208, 394).
len(208, 394, 24).
edge(208, 330).
len(208, 330, 97).
edge(209, 290).
len(209, 290, 45).
arc(210, 283).
edge(210, 396).
len(210, 396, 20).
edge(210, 275).
len(210, 275, 77).
edge(211, 478).
len(211, 478, 71).
edge(211, 391).
len(211, 391, 48).
edge(211, 248).
len(211, 248, 57).
edge(212, 459).
len(212, 459, 41).
edge(212, 317).
len(212, 317, 23).
edge(212, 291).
len(212, 291, 98).
edge(213, 318).
len(213, 318, 98).
edge(214, 332).
len(214, 332, 11).
edge(214, 291).
len(214, 291, 49).
edge(215, 416).
len(215, 416, 12).
arc(352, 215).
edge(215, 427).
len(215, 427, 47).
edge(216, 305).
len(216, 305, 95).
edge(216, 323).
len(216, 323, 83).
edge(216, 345).
len(216, 345, 47).
edge(217, 310).
len(217, 310, 14).
arc(217, 284).
edge(217, 471).
len(217, 471, 64).
edge(218, 435).
len(218, 435, 2).
arc(218, 307).
edge(218, 331).
len(218, 331, 92).
edge(218, 278).
len(218, 278, 98).
edge(219, 462).
len(219, 462, 38).
edge(220, 359).
len(220, 359, 29).
edge(221, 246).
len(221, 246, 63).
edge(221, 413).
len(221, 413, 80).
edge(221, 358).
len(221, 358, 56).
edge(222, 321).
len(222, 321, 39).
edge(222, 225).
len(222, 225, 89).
edge(223, 308).
len(223, 308, 70).
edge(223, 244).
len(223, 244, 57).
edge(223, 394).
len(223, 394, 58).
edge(224, 312).
len(224, 312, 68).
edge(224, 347).
len(224, 347, 18).
edge(224, 288).
len(224, 288, 30).
edge(225, 350).
len(225, 350, 67).
arc(225, 428).
edge(225, 312).
len(225, 312, 22).
edge(226, 471).
len(226, 471, 36).
edge(226, 284).
len(226, 284, 86).
edge(227, 440).
len(227, 440, 89).
edge(227, 432).
len(227, 432, 54).
edge(228, 385).
len(228, 385, 25).
edge(229, 462).
len(229, 462, 64).
edge(229, 304).
len(229, 304, 15).
edge(230, 366).
len(230, 366, 18).
edge(230, 312).
len(230, 312, 57).
edge(230, 368).
len(230, 368, 2).
edge(231, 273).
len(231, 273, 78).
edge(232, 388).
len(232, 388, 58).
edge(232, 478).
len(232, 478, 24).
edge(232, 373).
len(232, 373, 85).
edge(233, 247).
len(233, 247, 58).
edge(233, 413).
len(233, 413, 47).
edge(234, 437).
len(234, 437, 59).
edge(234, 474).
len(234, 474, 28).
edge(234, 420).
len(234, 420, 24).
edge(234, 246).
len(234, 246, 43).
edge(234, 242).
len(234, 242, 19).
edge(235, 335).
len(235, 335, 48).
edge(235, 326).
len(235, 326, 77).
edge(235, 290).
len(235, 290, 74).
edge(235, 296).
len(235, 296, 44).
edge(235, 331).
len(235, 331, 27).
edge(236, 330).
len(236, 330, 79).
edge(236, 460).
len(236, 460, 66).
edge(236, 327).
len(236, 327, 3).
edge(236, 423).
len(236, 423, 24).
edge(237, 249).
len(237, 249, 75).
edge(237, 342).
len(237, 342, 7).
edge(237, 421).
len(237, 421, 60).
edge(237, 367).
len(237, 367, 3).
arc(238, 336).
edge(239, 275).
len(239, 275, 28).
edge(240, 395).
len(240, 395, 73).
edge(241, 321).
len(241, 321, 4).
edge(242, 374).
len(242, 374, 19).
edge(243, 355).
len(243, 355, 72).
edge(243, 363).
len(243, 363, 27).
edge(243, 368).
len(243, 368, 80).
edge(243, 446).
len(243, 446, 63).
edge(244, 475).
len(244, 475, 74).
edge(244, 375).
len(244, 375, 70).
edge(245, 257).
len(245, 257, 99).
edge(245, 327).
len(245, 327, 40).
edge(245, 335).
len(245, 335, 87).
edge(245, 291).
len(245, 291, 21).
arc(246, 280).
edge(247, 453).
len(247, 453, 70).
edge(248, 360).
len(248, 360, 19).
edge(248, 298).
len(248, 298, 35).
edge(248, 395).
len(248, 395, 83).
edge(248, 405).
len(248, 405, 29).
edge(249, 360).
len(249, 360, 13).
edge(249, 401).
len(249, 401, 63).
edge(250, 312).
len(250, 312, 56).
edge(251, 290).
len(251, 290, 59).
edge(253, 289).
len(253, 289, 92).
edge(253, 419).
len(253, 419, 67).
arc(254, 375).
edge(254, 370).
len(254, 370, 3).
edge(255, 428).
len(255, 428, 95).
edge(255, 313).
len(255, 313, 34).
edge(256, 333).
len(256, 333, 54).
edge(256, 380).
len(256, 380, 13).
edge(256, 480).
len(256, 480, 68).
edge(257, 322).
len(257, 322, 40).
edge(257, 388).
len(257, 388, 31).
edge(257, 335).
len(257, 335, 90).
edge(257, 398).
len(257, 398, 30).
arc(271, 257).
edge(258, 354).
len(258, 354, 15).
edge(258, 419).
len(258, 419, 58).
edge(261, 403).
len(261, 403, 28).
edge(261, 374).
len(261, 374, 66).
edge(261, 314).
len(261, 314, 62).
edge(261, 409).
len(261, 409, 48).
arc(292, 262).
edge(262, 369).
len(262, 369, 53).
arc(387, 263).
arc(263, 446).
edge(264, 327).
len(264, 327, 84).
edge(264, 300).
len(264, 300, 91).
edge(264, 269).
len(264, 269, 12).
edge(265, 428).
len(265, 428, 22).
edge(265, 383).
len(265, 383, 73).
edge(266, 352).
len(266, 352, 98).
edge(266, 338).
len(266, 338, 18).
edge(267, 366).
len(267, 366, 6).
edge(267, 452).
len(267, 452, 10).
edge(268, 413).
len(268, 413, 7).
edge(268, 270).
len(268, 270, 30).
edge(268, 395).
len(268, 395, 36).
edge(268, 322).
len(268, 322, 23).
edge(269, 464).
len(269, 464, 13).
edge(270, 378).
len(270, 378, 84).
edge(270, 363).
len(270, 363, 6).
edge(271, 350).
len(271, 350, 5).
edge(272, 417).
len(272, 417, 38).
edge(272, 326).
len(272, 326, 94).
edge(272, 406).
len(272, 406, 100).
edge(273, 301).
len(273, 301, 7).
edge(274, 383).
len(274, 383, 95).
arc(274, 361).
edge(274, 350).
len(274, 350, 55).
edge(275, 379).
len(275, 379, 4).
edge(277, 327).
len(277, 327, 90).
arc(277, 338).
edge(278, 344).
len(278, 344, 73).
edge(278, 410).
len(278, 410, 61).
edge(279, 464).
len(279, 464, 8).
edge(281, 390).
len(281, 390, 56).
arc(392, 282).
edge(282, 290).
len(282, 290, 30).
edge(283, 450).
len(283, 450, 88).
edge(283, 329).
len(283, 329, 54).
arc(283, 441).
edge(283, 313).
len(283, 313, 80).
edge(285, 470).
len(285, 470, 35).
edge(285, 479).
len(285, 479, 70).
edge(287, 312).
len(287, 312, 21).
edge(288, 297).
len(288, 297, 98).
edge(289, 304).
len(289, 304, 36).
edge(289, 476).
len(289, 476, 20).
edge(289, 293).
len(289, 293, 15).
edge(289, 350).
len(289, 350, 9).
edge(290, 368).
len(290, 368, 97).
edge(290, 304).
len(290, 304, 70).
edge(291, 424).
len(291, 424, 3).
arc(356, 291).
edge(291, 295).
len(291, 295, 70).
edge(292, 369).
len(292, 369, 69).
edge(293, 427).
len(293, 427, 23).
edge(293, 473).
len(293, 473, 23).
edge(294, 334).
len(294, 334, 37).
edge(294, 375).
len(294, 375, 1).
edge(294, 404).
len(294, 404, 94).
edge(295, 326).
len(295, 326, 33).
edge(296, 301).
len(296, 301, 46).
edge(296, 298).
len(296, 298, 17).
edge(297, 479).
len(297, 479, 79).
edge(298, 319).
len(298, 319, 75).
edge(300, 324).
len(300, 324, 48).
edge(302, 466).
len(302, 466, 89).
edge(303, 310).
len(303, 310, 83).
edge(303, 468).
len(303, 468, 63).
edge(304, 306).
len(304, 306, 62).
edge(304, 324).
len(304, 324, 22).
edge(305, 352).
len(305, 352, 33).
edge(305, 477).
len(305, 477, 28).
edge(305, 392).
len(305, 392, 81).
edge(306, 336).
len(306, 336, 85).
edge(307, 311).
len(307, 311, 63).
edge(308, 400).
len(308, 400, 22).
edge(309, 475).
len(309, 475, 66).
edge(309, 331).
len(309, 331, 85).
edge(309, 327).
len(309, 327, 76).
edge(309, 323).
len(309, 323, 78).
edge(309, 467).
len(309, 467, 96).
edge(310, 355).
len(310, 355, 3).
edge(310, 409).
len(310, 409, 11).
edge(311, 346).
len(311, 346, 49).
arc(395, 311).
edge(311, 371).
len(311, 371, 95).
edge(312, 462).
len(312, 462, 73).
edge(312, 435).
len(312, 435, 99).
edge(313, 380).
len(313, 380, 18).
edge(313, 473).
len(313, 473, 64).
edge(314, 366).
len(314, 366, 32).
edge(316, 363).
len(316, 363, 70).
edge(316, 427).
len(316, 427, 8).
edge(316, 354).
len(316, 354, 72).
edge(316, 471).
len(316, 471, 90).
edge(318, 466).
len(318, 466, 20).
edge(320, 388).
len(320, 388, 51).
edge(320, 352).
len(320, 352, 90).
edge(320, 416).
len(320, 416, 96).
edge(321, 448).
len(321, 448, 47).
edge(321, 395).
len(321, 395, 43).
edge(321, 455).
len(321, 455, 82).
edge(323, 350).
len(323, 350, 35).
edge(325, 359).
len(325, 359, 46).
edge(326, 425).
len(326, 425, 96).
edge(326, 461).
len(326, 461, 75).
edge(327, 343).
len(327, 343, 49).
arc(329, 454).
arc(354, 331).
edge(331, 479).
len(331, 479, 68).
edge(332, 446).
len(332, 446, 25).
edge(332, 475).
len(332, 475, 27).
edge(334, 450).
len(334, 450, 67).
edge(334, 460).
len(334, 460, 9).
edge(335, 421).
len(335, 421, 92).
edge(336, 453).
len(336, 453, 63).
edge(336, 354).
len(336, 354, 46).
edge(336, 356).
len(336, 356, 80).
edge(337, 404).
len(337, 404, 59).
edge(337, 377).
len(337, 377, 18).
edge(338, 364).
len(338, 364, 47).
edge(338, 416).
len(338, 416, 43).
edge(339, 432).
len(339, 432, 88).
edge(339, 382).
len(339, 382, 3).
edge(341, 363).
len(341, 363, 7).
edge(341, 447).
len(341, 447, 17).
edge(341, 397).
len(341, 397, 46).
edge(342, 420).
len(342, 420, 31).
edge(343, 466).
len(343, 466, 39).
edge(344, 436).
len(344, 436, 77).
edge(345, 370).
len(345, 370, 69).
edge(345, 367).
len(345, 367, 75).
edge(346, 394).
len(346, 394, 64).
edge(346, 469).
len(346, 469, 36).
edge(346, 438).
len(346, 438, 95).
edge(347, 431).
len(347, 431, 22).
edge(348, 349).
len(348, 349, 59).
edge(351, 473).
len(351, 473, 91).
edge(356, 395).
len(356, 395, 95).
edge(356, 458).
len(356, 458, 67).
edge(356, 367).
len(356, 367, 11).
edge(359, 427).
len(359, 427, 45).
edge(359, 412).
len(359, 412, 25).
edge(361, 391).
len(361, 391, 64).
edge(361, 419).
len(361, 419, 86).
edge(361, 423).
len(361, 423, 47).
edge(362, 379).
len(362, 379, 63).
edge(362, 437).
len(362, 437, 48).
edge(363, 393).
len(363, 393, 14).
edge(363, 445).
len(363, 445, 45).
edge(365, 465).
len(365, 465, 66).
edge(365, 395).
len(365, 395, 45).
edge(366, 436).
len(366, 436, 2).
edge(367, 439).
len(367, 439, 48).
edge(368, 436).
len(368, 436, 43).
edge(372, 458).
len(372, 458, 98).
edge(373, 377).
len(373, 377, 20).
edge(373, 451).
len(373, 451, 19).
edge(374, 435).
len(374, 435, 54).
edge(375, 396).
len(375, 396, 49).
edge(375, 383).
len(375, 383, 74).
edge(379, 414).
len(379, 414, 44).
edge(379, 430).
len(379, 430, 8).
edge(382, 399).
len(382, 399, 59).
edge(382, 473).
len(382, 473, 91).
edge(384, 402).
len(384, 402, 98).
edge(385, 406).
len(385, 406, 42).
edge(385, 449).
len(385, 449, 37).
edge(387, 394).
len(387, 394, 8).
edge(387, 457).
len(387, 457, 22).
edge(387, 388).
len(387, 388, 66).
edge(387, 477).
len(387, 477, 57).
arc(388, 468).
edge(389, 475).
len(389, 475, 16).
edge(390, 468).
len(390, 468, 8).
edge(391, 414).
len(391, 414, 15).
edge(391, 441).
len(391, 441, 51).
edge(396, 398).
len(396, 398, 98).
edge(397, 469).
len(397, 469, 36).
edge(398, 472).
len(398, 472, 61).
edge(400, 448).
len(400, 448, 33).
edge(402, 406).
len(402, 406, 56).
edge(403, 415).
len(403, 415, 72).
edge(407, 468).
len(407, 468, 17).
edge(408, 421).
len(408, 421, 61).
edge(410, 444).
len(410, 444, 95).
edge(411, 454).
len(411, 454, 19).
edge(418, 434).
len(418, 434, 10).
edge(418, 465).
len(418, 465, 71).
edge(419, 424).
len(419, 424, 26).
edge(420, 478).
len(420, 478, 6).
edge(423, 429).
len(423, 429, 94).
edge(424, 469).
len(424, 469, 51).
arc(459, 424).
edge(425, 437).
len(425, 437, 96).
edge(427, 464).
len(427, 464, 66).
edge(433, 477).
len(433, 477, 49).
edge(433, 435).
len(433, 435, 18).
edge(435, 477).
len(435, 477, 92).
edge(442, 467).
len(442, 467, 75).
edge(443, 465).
len(443, 465, 35).
edge(465, 468).
len(465, 468, 71).
edge(469, 477).
len(469, 477, 74).
edge(475, 476).
len(475, 476, 98).
