vtx(1..90).
edge(1, 40).
len(1, 40, 60).
edge(1, 55).
len(1, 55, 51).
edge(1, 86).
len(1, 86, 31).
edge(1, 27).
len(1, 27, 59).
edge(1, 11).
len(1, 11, 89).
edge(2, 12).
len(2, 12, 39).
edge(2, 74).
len(2, 74, 61).
arc(71, 2).
edge(2, 43).
len(2, 43, 15).
edge(2, 61).
len(2, 61, 68).
edge(3, 55).
len(3, 55, 45).
edge(3, 78).
len(3, 78, 76).
edge(3, 75).
len(3, 75, 73).
edge(3, 59).
len(3, 59, 99).
edge(3, 38).
len(3, 38, 55).
edge(3, 15).
len(3, 15, 31).
edge(4, 19).
len(4, 19, 26).
edge(4, 61).
len(4, 61, 44).
edge(4, 71).
len(4, 71, 5).
edge(4, 29).
len(4, 29, 42).
edge(5, 11).
len(5, 11, 70).
edge(5, 15).
len(5, 15, 38).
edge(5, 35).
len(5, 35, 5).
edge(5, 46).
len(5, 46, 14).
edge(5, 80).
len(5, 80, 58).
edge(5, 33).
len(5, 33, 19).
edge(5, 54).
len(5, 54, 69).
arc(37, 6).
edge(6, 24).
len(6, 24, 88).
edge(6, 66).
len(6, 66, 60).
edge(6, 8).
len(6, 8, 24).
edge(6, 82).
len(6, 82, 1).
edge(7, 53).
len(7, 53, 97).
arc(25, 7).
edge(7, 66).
len(7, 66, 86).
edge(7, 90).
len(7, 90, 83).
edge(8, 60).
len(8, 60, 80).
edge(8, 51).
len(8, 51, 64).
edge(9, 49).
len(9, 49, 32).
edge(9, 83).
len(9, 83, 32).
edge(9, 47).
len(9, 47, 13).
edge(9, 16).
len(9, 16, 20).
edge(9, 26).
len(9, 26, 10).
edge(9, 17).
len(9, 17, 88).
edge(9, 77).
len(9, 77, 87).
edge(10, 13).
len(10, 13, 23).
arc(48, 10).
edge(10, 11).
len(10, 11, 67).
edge(10, 88).
len(10, 88, 46).
edge(11, 68).
len(11, 68, 74).
edge(11, 84).
len(11, 84, 49).
edge(12, 50).
len(12, 50, 3).
edge(12, 83).
len(12, 83, 72).
arc(12, 27).
edge(13, 82).
len(13, 82, 60).
edge(14, 69).
len(14, 69, 75).
edge(14, 28).
len(14, 28, 93).
edge(14, 53).
len(14, 53, 16).
arc(14, 75).
edge(15, 86).
len(15, 86, 6).
edge(15, 48).
len(15, 48, 80).
edge(15, 25).
len(15, 25, 34).
edge(15, 18).
len(15, 18, 73).
arc(15, 84).
edge(15, 70).
len(15, 70, 10).
arc(16, 33).
edge(16, 88).
len(16, 88, 66).
edge(16, 39).
len(16, 39, 90).
edge(16, 68).
len(16, 68, 30).
edge(17, 21).
len(17, 21, 39).
edge(17, 77).
len(17, 77, 56).
edge(17, 76).
len(17, 76, 85).
edge(18, 42).
len(18, 42, 18).
edge(18, 19).
len(18, 19, 97).
edge(18, 62).
len(18, 62, 2).
edge(18, 51).
len(18, 51, 4).
edge(18, 57).
len(18, 57, 29).
edge(19, 57).
len(19, 57, 21).
edge(19, 88).
len(19, 88, 19).
edge(19, 41).
len(19, 41, 70).
edge(19, 59).
len(19, 59, 11).
edge(19, 69).
len(19, 69, 80).
edge(19, 23).
len(19, 23, 28).
edge(19, 81).
len(19, 81, 92).
edge(19, 50).
len(19, 50, 22).
arc(20, 67).
edge(20, 62).
len(20, 62, 62).
edge(20, 29).
len(20, 29, 2).
edge(20, 72).
len(20, 72, 9).
edge(20, 61).
len(20, 61, 43).
edge(20, 53).
len(20, 53, 4).
edge(20, 50).
len(20, 50, 79).
edge(20, 43).
len(20, 43, 91).
edge(21, 38).
len(21, 38, 62).
edge(21, 55).
len(21, 55, 59).
edge(21, 49).
len(21, 49, 96).
edge(21, 22).
len(21, 22, 71).
edge(22, 89).
len(22, 89, 89).
edge(22, 42).
len(22, 42, 39).
edge(22, 71).
len(22, 71, 19).
arc(22, 79).
edge(23, 38).
len(23, 38, 4).
edge(23, 62).
len(23, 62, 20).
edge(23, 79).
len(23, 79, 59).
edge(24, 50).
len(24, 50, 87).
edge(24, 69).
len(24, 69, 29).
edge(25, 60).
len(25, 60, 44).
edge(25, 34).
len(25, 34, 53).
edge(25, 79).
len(25, 79, 74).
edge(25, 86).
len(25, 86, 69).
arc(35, 25).
edge(26, 27).
len(26, 27, 76).
edge(27, 69).
len(27, 69, 19).
edge(28, 53).
len(28, 53, 74).
edge(28, 45).
len(28, 45, 78).
edge(28, 46).
len(28, 46, 96).
edge(30, 57).
len(30, 57, 87).
edge(30, 76).
len(30, 76, 45).
edge(30, 69).
len(30, 69, 37).
edge(30, 87).
len(30, 87, 21).
edge(30, 42).
len(30, 42, 14).
edge(31, 53).
len(31, 53, 23).
edge(31, 37).
len(31, 37, 8).
edge(31, 79).
len(31, 79, 86).
edge(31, 42).
len(31, 42, 8).
edge(32, 37).
len(32, 37, 79).
edge(32, 70).
len(32, 70, 31).
edge(32, 58).
len(32, 58, 35).
edge(32, 40).
len(32, 40, 27).
edge(32, 59).
len(32, 59, 74).
edge(32, 62).
len(32, 62, 38).
edge(32, 73).
len(32, 73, 50).
arc(32, 52).
edge(33, 72).
len(33, 72, 59).
edge(33, 52).
len(33, 52, 100).
edge(33, 85).
len(33, 85, 51).
edge(33, 78).
len(33, 78, 80).
edge(33, 34).
len(33, 34, 68).
edge(33, 65).
len(33, 65, 1).
edge(33, 38).
len(33, 38, 53).
edge(34, 52).
len(34, 52, 30).
arc(34, 42).
edge(35, 86).
len(35, 86, 64).
arc(78, 35).
edge(35, 71).
len(35, 71, 16).
edge(36, 51).
len(36, 51, 59).
edge(36, 55).
len(36, 55, 48).
edge(36, 57).
len(36, 57, 80).
edge(36, 85).
len(36, 85, 9).
edge(37, 62).
len(37, 62, 91).
edge(38, 39).
len(38, 39, 31).
edge(38, 42).
len(38, 42, 16).
arc(57, 38).
arc(39, 56).
edge(39, 59).
len(39, 59, 76).
edge(39, 61).
len(39, 61, 31).
edge(39, 42).
len(39, 42, 88).
edge(40, 48).
len(40, 48, 35).
arc(42, 40).
edge(40, 41).
len(40, 41, 65).
edge(40, 87).
len(40, 87, 99).
edge(40, 90).
len(40, 90, 96).
edge(41, 50).
len(41, 50, 26).
edge(41, 65).
len(41, 65, 24).
edge(41, 53).
len(41, 53, 96).
edge(41, 81).
len(41, 81, 82).
edge(42, 76).
len(42, 76, 68).
edge(42, 72).
len(42, 72, 92).
edge(43, 63).
len(43, 63, 86).
edge(43, 68).
len(43, 68, 4).
edge(43, 69).
len(43, 69, 5).
edge(43, 66).
len(43, 66, 17).
edge(43, 84).
len(43, 84, 67).
arc(44, 50).
edge(44, 49).
len(44, 49, 59).
edge(45, 61).
len(45, 61, 73).
arc(76, 47).
edge(47, 72).
len(47, 72, 24).
edge(47, 54).
len(47, 54, 18).
edge(47, 84).
len(47, 84, 76).
edge(47, 87).
len(47, 87, 8).
edge(47, 50).
len(47, 50, 2).
edge(47, 58).
len(47, 58, 38).
edge(47, 70).
len(47, 70, 64).
edge(47, 81).
len(47, 81, 25).
edge(48, 67).
len(48, 67, 83).
edge(48, 82).
len(48, 82, 71).
edge(49, 83).
len(49, 83, 11).
edge(49, 68).
len(49, 68, 44).
arc(50, 64).
edge(50, 79).
len(50, 79, 42).
edge(50, 83).
len(50, 83, 5).
edge(50, 67).
len(50, 67, 49).
edge(50, 87).
len(50, 87, 97).
edge(51, 84).
len(51, 84, 99).
edge(52, 64).
len(52, 64, 87).
edge(52, 77).
len(52, 77, 63).
edge(52, 70).
len(52, 70, 30).
edge(53, 82).
len(53, 82, 24).
edge(53, 76).
len(53, 76, 44).
edge(53, 54).
len(53, 54, 72).
edge(54, 63).
len(54, 63, 50).
edge(54, 76).
len(54, 76, 5).
edge(54, 89).
len(54, 89, 11).
edge(54, 82).
len(54, 82, 90).
edge(54, 79).
len(54, 79, 71).
edge(55, 62).
len(55, 62, 68).
edge(55, 79).
len(55, 79, 95).
edge(55, 90).
len(55, 90, 11).
edge(56, 82).
len(56, 82, 40).
edge(56, 77).
len(56, 77, 62).
edge(57, 69).
len(57, 69, 67).
edge(57, 68).
len(57, 68, 34).
edge(57, 89).
len(57, 89, 99).
edge(57, 75).
len(57, 75, 49).
edge(57, 82).
len(57, 82, 25).
edge(57, 85).
len(57, 85, 95).
edge(58, 65).
len(58, 65, 76).
edge(59, 80).
len(59, 80, 27).
edge(59, 84).
len(59, 84, 35).
edge(60, 82).
len(60, 82, 68).
edge(60, 71).
len(60, 71, 68).
edge(60, 85).
len(60, 85, 48).
edge(60, 74).
len(60, 74, 66).
edge(61, 90).
len(61, 90, 57).
edge(61, 83).
len(61, 83, 88).
arc(63, 62).
edge(62, 66).
len(62, 66, 57).
edge(63, 69).
len(63, 69, 14).
edge(64, 83).
len(64, 83, 21).
edge(64, 78).
len(64, 78, 51).
edge(65, 80).
len(65, 80, 52).
edge(65, 70).
len(65, 70, 97).
edge(66, 69).
len(66, 69, 85).
edge(68, 90).
len(68, 90, 83).
edge(71, 74).
len(71, 74, 74).
edge(71, 73).
len(71, 73, 86).
edge(72, 80).
len(72, 80, 88).
edge(72, 78).
len(72, 78, 4).
edge(72, 88).
len(72, 88, 29).
edge(72, 87).
len(72, 87, 93).
edge(73, 81).
len(73, 81, 10).
edge(73, 74).
len(73, 74, 26).
edge(73, 86).
len(73, 86, 34).
edge(74, 79).
len(74, 79, 26).
edge(75, 80).
len(75, 80, 21).
arc(77, 82).
edge(81, 90).
len(81, 90, 86).
edge(84, 87).
len(84, 87, 10).
edge(85, 86).
len(85, 86, 20).
