vtx(1..150).
edge(1, 46).
len(1, 46, 93).
edge(1, 71).
len(1, 71, 37).
edge(1, 15).
len(1, 15, 91).
edge(2, 81).
len(2, 81, 80).
edge(3, 68).
len(3, 68, 100).
arc(90, 3).
edge(3, 119).
len(3, 119, 9).
edge(3, 23).
len(3, 23, 60).
edge(4, 107).
len(4, 107, 42).
edge(4, 131).
len(4, 131, 61).
edge(4, 139).
len(4, 139, 7).
edge(4, 38).
len(4, 38, 20).
edge(4, 46).
len(4, 46, 26).
edge(4, 24).
len(4, 24, 17).
edge(4, 14).
len(4, 14, 95).
edge(4, 99).
len(4, 99, 69).
edge(4, 84).
len(4, 84, 69).
edge(5, 112).
len(5, 112, 94).
edge(5, 133).
len(5, 133, 97).
edge(5, 61).
len(5, 61, 16).
arc(5, 83).
edge(5, 107).
len(5, 107, 27).
edge(5, 142).
len(5, 142, 88).
edge(5, 132).
len(5, 132, 50).
edge(6, 107).
len(6, 107, 23).
edge(6, 127).
len(6, 127, 68).
edge(6, 20).
len(6, 20, 1).
edge(6, 80).
len(6, 80, 49).
edge(6, 60).
len(6, 60, 19).
edge(7, 121).
len(7, 121, 21).
edge(7, 124).
len(7, 124, 48).
edge(8, 32).
len(8, 32, 32).
edge(9, 27).
len(9, 27, 73).
edge(9, 15).
len(9, 15, 83).
edge(9, 99).
len(9, 99, 88).
edge(9, 22).
len(9, 22, 52).
edge(9, 97).
len(9, 97, 1).
edge(10, 98).
len(10, 98, 74).
arc(135, 10).
edge(10, 52).
len(10, 52, 41).
edge(11, 142).
len(11, 142, 56).
edge(11, 39).
len(11, 39, 64).
edge(11, 88).
len(11, 88, 10).
edge(12, 43).
len(12, 43, 22).
edge(12, 100).
len(12, 100, 48).
edge(12, 26).
len(12, 26, 19).
edge(12, 150).
len(12, 150, 97).
edge(12, 123).
len(12, 123, 87).
edge(12, 70).
len(12, 70, 38).
edge(13, 142).
len(13, 142, 56).
edge(13, 104).
len(13, 104, 89).
edge(13, 39).
len(13, 39, 41).
edge(13, 68).
len(13, 68, 55).
edge(13, 87).
len(13, 87, 34).
edge(13, 43).
len(13, 43, 85).
arc(13, 91).
edge(14, 137).
len(14, 137, 76).
edge(14, 89).
len(14, 89, 89).
edge(15, 118).
len(15, 118, 33).
edge(15, 136).
len(15, 136, 80).
edge(15, 27).
len(15, 27, 66).
arc(128, 16).
edge(16, 139).
len(16, 139, 26).
edge(16, 135).
len(16, 135, 64).
edge(16, 112).
len(16, 112, 22).
edge(16, 57).
len(16, 57, 69).
edge(16, 80).
len(16, 80, 100).
edge(17, 29).
len(17, 29, 35).
edge(17, 49).
len(17, 49, 42).
edge(17, 58).
len(17, 58, 8).
edge(17, 61).
len(17, 61, 29).
edge(17, 90).
len(17, 90, 47).
edge(18, 73).
len(18, 73, 76).
edge(18, 144).
len(18, 144, 68).
edge(18, 143).
len(18, 143, 75).
edge(18, 123).
len(18, 123, 1).
edge(18, 95).
len(18, 95, 19).
edge(19, 97).
len(19, 97, 57).
arc(71, 19).
edge(19, 103).
len(19, 103, 81).
edge(19, 114).
len(19, 114, 87).
edge(19, 42).
len(19, 42, 14).
edge(20, 101).
len(20, 101, 34).
edge(20, 132).
len(20, 132, 48).
edge(20, 75).
len(20, 75, 86).
edge(21, 144).
len(21, 144, 18).
edge(21, 34).
len(21, 34, 21).
edge(21, 50).
len(21, 50, 10).
edge(21, 25).
len(21, 25, 21).
edge(21, 146).
len(21, 146, 96).
edge(21, 46).
len(21, 46, 83).
edge(21, 121).
len(21, 121, 5).
edge(21, 66).
len(21, 66, 11).
edge(22, 97).
len(22, 97, 13).
edge(22, 140).
len(22, 140, 63).
edge(22, 82).
len(22, 82, 43).
edge(22, 79).
len(22, 79, 39).
edge(23, 108).
len(23, 108, 87).
edge(23, 100).
len(23, 100, 46).
arc(23, 48).
edge(23, 148).
len(23, 148, 69).
edge(24, 55).
len(24, 55, 52).
edge(24, 146).
len(24, 146, 74).
edge(25, 120).
len(25, 120, 96).
edge(25, 81).
len(25, 81, 99).
edge(25, 112).
len(25, 112, 83).
edge(25, 138).
len(25, 138, 73).
edge(25, 146).
len(25, 146, 88).
arc(106, 25).
arc(26, 45).
edge(26, 137).
len(26, 137, 70).
edge(26, 57).
len(26, 57, 66).
edge(27, 79).
len(27, 79, 30).
edge(27, 115).
len(27, 115, 97).
edge(27, 150).
len(27, 150, 49).
edge(27, 101).
len(27, 101, 70).
edge(27, 105).
len(27, 105, 64).
edge(27, 84).
len(27, 84, 68).
edge(27, 116).
len(27, 116, 4).
arc(27, 40).
edge(28, 55).
len(28, 55, 5).
edge(28, 106).
len(28, 106, 60).
edge(29, 86).
len(29, 86, 15).
edge(29, 65).
len(29, 65, 62).
edge(29, 148).
len(29, 148, 38).
edge(29, 105).
len(29, 105, 89).
edge(29, 68).
len(29, 68, 92).
edge(29, 95).
len(29, 95, 89).
edge(30, 91).
len(30, 91, 43).
edge(30, 76).
len(30, 76, 97).
edge(30, 150).
len(30, 150, 62).
edge(30, 105).
len(30, 105, 37).
edge(30, 47).
len(30, 47, 93).
edge(30, 116).
len(30, 116, 31).
edge(30, 115).
len(30, 115, 7).
edge(30, 63).
len(30, 63, 65).
edge(30, 80).
len(30, 80, 56).
edge(31, 66).
len(31, 66, 28).
edge(31, 63).
len(31, 63, 2).
edge(31, 139).
len(31, 139, 41).
edge(32, 144).
len(32, 144, 28).
edge(32, 150).
len(32, 150, 91).
edge(32, 38).
len(32, 38, 82).
edge(32, 103).
len(32, 103, 94).
edge(32, 94).
len(32, 94, 97).
edge(32, 134).
len(32, 134, 74).
arc(52, 33).
edge(33, 38).
len(33, 38, 31).
edge(33, 138).
len(33, 138, 82).
arc(94, 34).
edge(35, 84).
len(35, 84, 75).
edge(35, 147).
len(35, 147, 76).
edge(35, 126).
len(35, 126, 34).
edge(35, 88).
len(35, 88, 39).
edge(36, 90).
len(36, 90, 98).
edge(36, 127).
len(36, 127, 49).
edge(37, 113).
len(37, 113, 98).
edge(37, 49).
len(37, 49, 16).
edge(37, 119).
len(37, 119, 17).
edge(37, 55).
len(37, 55, 94).
edge(38, 41).
len(38, 41, 52).
edge(38, 133).
len(38, 133, 66).
edge(38, 68).
len(38, 68, 27).
edge(38, 101).
len(38, 101, 95).
edge(39, 61).
len(39, 61, 1).
edge(39, 72).
len(39, 72, 97).
edge(39, 94).
len(39, 94, 37).
edge(39, 111).
len(39, 111, 80).
edge(39, 141).
len(39, 141, 73).
edge(39, 48).
len(39, 48, 58).
edge(40, 100).
len(40, 100, 70).
arc(40, 64).
edge(40, 103).
len(40, 103, 38).
edge(40, 122).
len(40, 122, 37).
edge(40, 68).
len(40, 68, 89).
edge(40, 120).
len(40, 120, 50).
edge(41, 67).
len(41, 67, 99).
edge(41, 141).
len(41, 141, 66).
edge(41, 50).
len(41, 50, 78).
edge(42, 139).
len(42, 139, 38).
edge(42, 86).
len(42, 86, 11).
edge(42, 89).
len(42, 89, 96).
arc(76, 42).
edge(43, 131).
len(43, 131, 48).
edge(43, 116).
len(43, 116, 70).
edge(44, 84).
len(44, 84, 66).
edge(44, 100).
len(44, 100, 15).
edge(45, 49).
len(45, 49, 63).
edge(45, 66).
len(45, 66, 79).
edge(45, 120).
len(45, 120, 100).
edge(46, 109).
len(46, 109, 56).
edge(46, 54).
len(46, 54, 27).
edge(46, 138).
len(46, 138, 18).
edge(46, 117).
len(46, 117, 34).
edge(47, 112).
len(47, 112, 75).
edge(47, 55).
len(47, 55, 67).
edge(47, 88).
len(47, 88, 78).
edge(48, 83).
len(48, 83, 61).
edge(48, 131).
len(48, 131, 89).
edge(48, 75).
len(48, 75, 40).
edge(48, 84).
len(48, 84, 5).
edge(49, 131).
len(49, 131, 82).
edge(49, 133).
len(49, 133, 76).
edge(49, 103).
len(49, 103, 55).
edge(50, 119).
len(50, 119, 42).
edge(50, 76).
len(50, 76, 87).
edge(50, 115).
len(50, 115, 36).
edge(50, 103).
len(50, 103, 74).
arc(50, 85).
edge(51, 133).
len(51, 133, 93).
edge(51, 75).
len(51, 75, 79).
edge(52, 140).
len(52, 140, 20).
edge(52, 58).
len(52, 58, 22).
edge(53, 136).
len(53, 136, 80).
edge(53, 135).
len(53, 135, 30).
edge(53, 55).
len(53, 55, 15).
edge(53, 120).
len(53, 120, 68).
edge(54, 149).
len(54, 149, 69).
edge(54, 72).
len(54, 72, 68).
edge(54, 70).
len(54, 70, 26).
edge(54, 148).
len(54, 148, 98).
edge(55, 128).
len(55, 128, 97).
arc(124, 55).
edge(55, 85).
len(55, 85, 69).
edge(55, 65).
len(55, 65, 9).
arc(55, 147).
edge(55, 101).
len(55, 101, 96).
edge(55, 71).
len(55, 71, 71).
edge(56, 81).
len(56, 81, 29).
edge(56, 140).
len(56, 140, 25).
edge(57, 99).
len(57, 99, 30).
edge(57, 77).
len(57, 77, 55).
edge(57, 107).
len(57, 107, 29).
edge(58, 59).
len(58, 59, 78).
edge(58, 116).
len(58, 116, 14).
edge(58, 121).
len(58, 121, 9).
edge(59, 146).
len(59, 146, 77).
edge(60, 100).
len(60, 100, 28).
edge(60, 120).
len(60, 120, 8).
edge(60, 135).
len(60, 135, 46).
edge(60, 119).
len(60, 119, 57).
edge(61, 77).
len(61, 77, 91).
edge(61, 150).
len(61, 150, 56).
edge(61, 63).
len(61, 63, 24).
edge(61, 110).
len(61, 110, 23).
edge(61, 64).
len(61, 64, 84).
edge(62, 138).
len(62, 138, 28).
edge(62, 76).
len(62, 76, 27).
edge(63, 79).
len(63, 79, 22).
arc(63, 103).
edge(63, 102).
len(63, 102, 74).
edge(63, 132).
len(63, 132, 65).
edge(63, 118).
len(63, 118, 49).
edge(63, 76).
len(63, 76, 77).
edge(63, 83).
len(63, 83, 15).
edge(63, 89).
len(63, 89, 15).
edge(64, 90).
len(64, 90, 34).
edge(64, 143).
len(64, 143, 66).
edge(64, 83).
len(64, 83, 68).
arc(65, 133).
edge(65, 123).
len(65, 123, 84).
edge(66, 69).
len(66, 69, 60).
edge(66, 131).
len(66, 131, 71).
edge(66, 128).
len(66, 128, 99).
edge(66, 133).
len(66, 133, 55).
edge(66, 109).
len(66, 109, 75).
edge(67, 69).
len(67, 69, 77).
edge(68, 147).
len(68, 147, 34).
edge(68, 71).
len(68, 71, 53).
edge(68, 97).
len(68, 97, 4).
edge(68, 120).
len(68, 120, 66).
edge(68, 91).
len(68, 91, 18).
edge(69, 97).
len(69, 97, 73).
edge(70, 126).
len(70, 126, 20).
edge(71, 149).
len(71, 149, 94).
edge(71, 80).
len(71, 80, 67).
edge(71, 104).
len(71, 104, 74).
edge(72, 112).
len(72, 112, 13).
edge(72, 119).
len(72, 119, 71).
edge(72, 95).
len(72, 95, 70).
edge(72, 86).
len(72, 86, 76).
edge(73, 78).
len(73, 78, 45).
edge(73, 83).
len(73, 83, 5).
edge(73, 110).
len(73, 110, 44).
edge(74, 147).
len(74, 147, 2).
edge(74, 144).
len(74, 144, 48).
edge(74, 81).
len(74, 81, 55).
edge(74, 150).
len(74, 150, 77).
edge(75, 124).
len(75, 124, 65).
edge(75, 133).
len(75, 133, 70).
edge(76, 105).
len(76, 105, 98).
edge(76, 119).
len(76, 119, 16).
edge(76, 144).
len(76, 144, 100).
edge(76, 132).
len(76, 132, 24).
edge(77, 101).
len(77, 101, 1).
edge(78, 105).
len(78, 105, 31).
arc(110, 78).
edge(78, 122).
len(78, 122, 85).
edge(78, 145).
len(78, 145, 89).
edge(79, 103).
len(79, 103, 38).
edge(79, 91).
len(79, 91, 23).
edge(79, 84).
len(79, 84, 96).
edge(79, 111).
len(79, 111, 62).
edge(79, 92).
len(79, 92, 94).
edge(79, 90).
len(79, 90, 24).
edge(80, 123).
len(80, 123, 34).
edge(80, 117).
len(80, 117, 54).
edge(80, 88).
len(80, 88, 85).
edge(82, 138).
len(82, 138, 13).
arc(82, 134).
edge(83, 132).
len(83, 132, 17).
edge(83, 103).
len(83, 103, 80).
edge(84, 138).
len(84, 138, 37).
edge(84, 135).
len(84, 135, 41).
edge(85, 108).
len(85, 108, 13).
edge(85, 146).
len(85, 146, 92).
edge(85, 105).
len(85, 105, 37).
edge(86, 146).
len(86, 146, 9).
edge(86, 113).
len(86, 113, 1).
edge(86, 116).
len(86, 116, 31).
edge(87, 100).
len(87, 100, 52).
edge(87, 116).
len(87, 116, 36).
edge(87, 114).
len(87, 114, 28).
edge(87, 133).
len(87, 133, 78).
arc(129, 87).
edge(87, 149).
len(87, 149, 5).
edge(88, 92).
len(88, 92, 72).
edge(88, 90).
len(88, 90, 63).
edge(88, 138).
len(88, 138, 44).
edge(88, 91).
len(88, 91, 65).
edge(88, 93).
len(88, 93, 29).
edge(88, 129).
len(88, 129, 29).
edge(88, 148).
len(88, 148, 67).
edge(89, 99).
len(89, 99, 48).
edge(90, 130).
len(90, 130, 97).
edge(90, 137).
len(90, 137, 50).
edge(91, 130).
len(91, 130, 24).
edge(92, 100).
len(92, 100, 35).
edge(92, 132).
len(92, 132, 30).
edge(92, 134).
len(92, 134, 57).
edge(92, 109).
len(92, 109, 53).
edge(93, 121).
len(93, 121, 83).
edge(93, 135).
len(93, 135, 20).
edge(93, 105).
len(93, 105, 32).
edge(93, 132).
len(93, 132, 46).
edge(94, 120).
len(94, 120, 27).
edge(94, 133).
len(94, 133, 9).
edge(96, 141).
len(96, 141, 39).
edge(96, 101).
len(96, 101, 45).
edge(97, 115).
len(97, 115, 34).
edge(97, 102).
len(97, 102, 21).
edge(98, 142).
len(98, 142, 70).
edge(98, 149).
len(98, 149, 71).
arc(107, 99).
edge(99, 104).
len(99, 104, 58).
edge(100, 138).
len(100, 138, 35).
edge(101, 128).
len(101, 128, 19).
arc(101, 138).
edge(102, 146).
len(102, 146, 84).
edge(102, 110).
len(102, 110, 48).
edge(102, 107).
len(102, 107, 56).
edge(103, 143).
len(103, 143, 12).
edge(104, 126).
len(104, 126, 81).
edge(104, 135).
len(104, 135, 86).
edge(104, 149).
len(104, 149, 16).
edge(105, 125).
len(105, 125, 52).
edge(106, 107).
len(106, 107, 18).
edge(106, 125).
len(106, 125, 62).
edge(107, 141).
len(107, 141, 68).
edge(108, 121).
len(108, 121, 36).
edge(109, 127).
len(109, 127, 97).
edge(109, 132).
len(109, 132, 16).
edge(110, 140).
len(110, 140, 32).
edge(110, 146).
len(110, 146, 49).
edge(113, 117).
len(113, 117, 95).
edge(113, 133).
len(113, 133, 11).
edge(113, 132).
len(113, 132, 31).
edge(114, 130).
len(114, 130, 59).
edge(116, 134).
len(116, 134, 95).
edge(117, 146).
len(117, 146, 36).
edge(118, 137).
len(118, 137, 98).
edge(119, 140).
len(119, 140, 85).
edge(119, 120).
len(119, 120, 79).
edge(120, 135).
len(120, 135, 19).
edge(120, 131).
len(120, 131, 87).
edge(121, 124).
len(121, 124, 8).
edge(122, 132).
len(122, 132, 5).
edge(123, 141).
len(123, 141, 89).
edge(125, 149).
len(125, 149, 55).
edge(125, 140).
len(125, 140, 98).
edge(126, 131).
len(126, 131, 10).
edge(127, 140).
len(127, 140, 66).
edge(128, 146).
len(128, 146, 81).
edge(131, 143).
len(131, 143, 95).
edge(132, 139).
len(132, 139, 57).
edge(133, 146).
len(133, 146, 13).
edge(136, 139).
len(136, 139, 74).
edge(136, 149).
len(136, 149, 22).
edge(142, 149).
len(142, 149, 39).
edge(145, 149).
len(145, 149, 39).
