vtx(1..200).
edge(1, 165).
len(1, 165, 87).
edge(1, 92).
len(1, 92, 71).
edge(1, 129).
len(1, 129, 44).
edge(1, 135).
len(1, 135, 42).
edge(1, 9).
len(1, 9, 82).
edge(1, 57).
len(1, 57, 25).
edge(1, 190).
len(1, 190, 13).
edge(2, 123).
len(2, 123, 17).
edge(2, 111).
len(2, 111, 82).
edge(2, 17).
len(2, 17, 96).
edge(2, 24).
len(2, 24, 34).
edge(2, 72).
len(2, 72, 89).
edge(2, 94).
len(2, 94, 14).
edge(2, 107).
len(2, 107, 61).
edge(2, 97).
len(2, 97, 35).
edge(3, 55).
len(3, 55, 65).
edge(3, 196).
len(3, 196, 88).
edge(3, 178).
len(3, 178, 33).
arc(136, 3).
edge(3, 111).
len(3, 111, 26).
arc(3, 47).
edge(3, 64).
len(3, 64, 76).
edge(3, 69).
len(3, 69, 12).
edge(4, 161).
len(4, 161, 5).
edge(4, 157).
len(4, 157, 80).
edge(4, 136).
len(4, 136, 92).
edge(4, 10).
len(4, 10, 20).
edge(4, 51).
len(4, 51, 68).
arc(4, 123).
edge(4, 165).
len(4, 165, 56).
edge(5, 57).
len(5, 57, 94).
edge(5, 65).
len(5, 65, 40).
edge(5, 111).
len(5, 111, 2).
edge(5, 122).
len(5, 122, 27).
edge(5, 12).
len(5, 12, 50).
edge(5, 180).
len(5, 180, 65).
edge(6, 77).
len(6, 77, 12).
edge(6, 112).
len(6, 112, 86).
edge(6, 14).
len(6, 14, 98).
edge(7, 140).
len(7, 140, 37).
arc(7, 86).
edge(7, 28).
len(7, 28, 60).
edge(7, 175).
len(7, 175, 80).
edge(7, 42).
len(7, 42, 81).
edge(7, 193).
len(7, 193, 65).
edge(8, 45).
len(8, 45, 12).
edge(8, 178).
len(8, 178, 69).
edge(8, 27).
len(8, 27, 38).
edge(8, 54).
len(8, 54, 36).
edge(9, 102).
len(9, 102, 19).
edge(9, 90).
len(9, 90, 35).
edge(9, 140).
len(9, 140, 47).
edge(9, 94).
len(9, 94, 98).
edge(9, 182).
len(9, 182, 86).
edge(9, 40).
len(9, 40, 68).
edge(10, 182).
len(10, 182, 56).
arc(10, 75).
edge(10, 175).
len(10, 175, 100).
edge(10, 50).
len(10, 50, 6).
edge(10, 121).
len(10, 121, 16).
edge(11, 40).
len(11, 40, 53).
edge(11, 57).
len(11, 57, 60).
edge(11, 197).
len(11, 197, 79).
edge(12, 115).
len(12, 115, 1).
edge(12, 87).
len(12, 87, 49).
edge(12, 193).
len(12, 193, 26).
edge(12, 147).
len(12, 147, 68).
edge(13, 129).
len(13, 129, 55).
edge(13, 57).
len(13, 57, 70).
edge(13, 132).
len(13, 132, 81).
edge(13, 32).
len(13, 32, 64).
edge(13, 140).
len(13, 140, 46).
edge(13, 194).
len(13, 194, 70).
arc(13, 197).
arc(165, 13).
edge(14, 162).
len(14, 162, 38).
edge(14, 54).
len(14, 54, 84).
edge(14, 36).
len(14, 36, 41).
edge(14, 26).
len(14, 26, 58).
edge(14, 32).
len(14, 32, 63).
edge(14, 109).
len(14, 109, 24).
edge(14, 24).
len(14, 24, 28).
edge(15, 56).
len(15, 56, 78).
edge(15, 126).
len(15, 126, 61).
arc(107, 15).
edge(15, 144).
len(15, 144, 62).
edge(15, 42).
len(15, 42, 61).
edge(15, 161).
len(15, 161, 62).
edge(15, 35).
len(15, 35, 87).
edge(15, 55).
len(15, 55, 76).
edge(16, 156).
len(16, 156, 23).
edge(16, 56).
len(16, 56, 1).
edge(17, 157).
len(17, 157, 79).
edge(17, 49).
len(17, 49, 3).
edge(17, 93).
len(17, 93, 40).
arc(86, 17).
edge(18, 65).
len(18, 65, 94).
edge(18, 62).
len(18, 62, 52).
edge(18, 97).
len(18, 97, 51).
edge(19, 68).
len(19, 68, 12).
edge(19, 134).
len(19, 134, 46).
edge(20, 65).
len(20, 65, 47).
edge(20, 99).
len(20, 99, 45).
edge(20, 171).
len(20, 171, 18).
edge(20, 36).
len(20, 36, 18).
edge(21, 91).
len(21, 91, 87).
edge(21, 38).
len(21, 38, 28).
edge(21, 97).
len(21, 97, 44).
edge(21, 177).
len(21, 177, 2).
edge(22, 140).
len(22, 140, 40).
edge(22, 161).
len(22, 161, 65).
edge(22, 59).
len(22, 59, 55).
edge(22, 56).
len(22, 56, 34).
edge(22, 163).
len(22, 163, 12).
edge(22, 158).
len(22, 158, 73).
edge(23, 40).
len(23, 40, 34).
edge(23, 77).
len(23, 77, 53).
edge(23, 74).
len(23, 74, 94).
edge(24, 95).
len(24, 95, 30).
edge(25, 94).
len(25, 94, 32).
arc(56, 25).
edge(25, 164).
len(25, 164, 81).
edge(25, 160).
len(25, 160, 26).
edge(25, 26).
len(25, 26, 2).
edge(25, 87).
len(25, 87, 59).
edge(25, 137).
len(25, 137, 86).
edge(26, 137).
len(26, 137, 71).
edge(26, 188).
len(26, 188, 80).
edge(26, 102).
len(26, 102, 19).
edge(26, 128).
len(26, 128, 36).
edge(27, 153).
len(27, 153, 43).
edge(27, 126).
len(27, 126, 31).
edge(27, 184).
len(27, 184, 67).
edge(27, 102).
len(27, 102, 34).
edge(29, 75).
len(29, 75, 90).
edge(29, 190).
len(29, 190, 75).
arc(141, 29).
edge(29, 94).
len(29, 94, 8).
edge(29, 77).
len(29, 77, 9).
edge(29, 179).
len(29, 179, 17).
edge(30, 173).
len(30, 173, 9).
edge(30, 148).
len(30, 148, 4).
edge(30, 160).
len(30, 160, 23).
edge(31, 130).
len(31, 130, 60).
arc(31, 192).
edge(31, 194).
len(31, 194, 43).
edge(31, 119).
len(31, 119, 27).
edge(32, 113).
len(32, 113, 22).
edge(32, 57).
len(32, 57, 53).
edge(33, 137).
len(33, 137, 1).
edge(34, 88).
len(34, 88, 48).
edge(34, 139).
len(34, 139, 89).
arc(48, 34).
edge(35, 144).
len(35, 144, 63).
edge(35, 165).
len(35, 165, 93).
arc(160, 35).
arc(35, 194).
edge(36, 42).
len(36, 42, 32).
edge(37, 121).
len(37, 121, 29).
edge(38, 129).
len(38, 129, 57).
edge(38, 96).
len(38, 96, 62).
edge(38, 101).
len(38, 101, 68).
arc(69, 39).
edge(39, 73).
len(39, 73, 35).
edge(40, 97).
len(40, 97, 67).
edge(40, 106).
len(40, 106, 91).
edge(40, 45).
len(40, 45, 2).
edge(40, 116).
len(40, 116, 60).
edge(40, 134).
len(40, 134, 72).
arc(40, 110).
edge(40, 181).
len(40, 181, 52).
edge(40, 118).
len(40, 118, 98).
edge(40, 54).
len(40, 54, 40).
edge(41, 45).
len(41, 45, 70).
edge(41, 80).
len(41, 80, 99).
edge(41, 119).
len(41, 119, 58).
edge(41, 102).
len(41, 102, 3).
edge(41, 166).
len(41, 166, 43).
arc(101, 42).
edge(42, 130).
len(42, 130, 71).
edge(42, 84).
len(42, 84, 93).
edge(42, 90).
len(42, 90, 38).
edge(43, 139).
len(43, 139, 63).
edge(43, 53).
len(43, 53, 25).
arc(43, 115).
edge(43, 142).
len(43, 142, 47).
edge(43, 195).
len(43, 195, 97).
edge(43, 152).
len(43, 152, 97).
edge(44, 196).
len(44, 196, 32).
edge(44, 124).
len(44, 124, 5).
edge(44, 167).
len(44, 167, 79).
edge(44, 103).
len(44, 103, 19).
edge(44, 140).
len(44, 140, 37).
edge(45, 71).
len(45, 71, 4).
edge(46, 90).
len(46, 90, 46).
edge(46, 119).
len(46, 119, 87).
edge(46, 109).
len(46, 109, 37).
edge(46, 88).
len(46, 88, 83).
edge(47, 116).
len(47, 116, 67).
edge(47, 55).
len(47, 55, 33).
edge(47, 57).
len(47, 57, 12).
edge(48, 148).
len(48, 148, 15).
edge(48, 176).
len(48, 176, 37).
edge(48, 170).
len(48, 170, 21).
edge(48, 135).
len(48, 135, 83).
arc(162, 49).
edge(49, 101).
len(49, 101, 29).
edge(49, 186).
len(49, 186, 61).
edge(49, 178).
len(49, 178, 91).
edge(49, 153).
len(49, 153, 6).
edge(49, 75).
len(49, 75, 43).
edge(51, 161).
len(51, 161, 19).
edge(51, 151).
len(51, 151, 83).
edge(51, 133).
len(51, 133, 36).
edge(52, 177).
len(52, 177, 21).
edge(52, 101).
len(52, 101, 21).
edge(52, 124).
len(52, 124, 14).
edge(52, 66).
len(52, 66, 64).
edge(52, 190).
len(52, 190, 29).
edge(53, 59).
len(53, 59, 75).
edge(53, 77).
len(53, 77, 47).
edge(53, 69).
len(53, 69, 12).
edge(53, 73).
len(53, 73, 49).
edge(53, 154).
len(53, 154, 70).
arc(137, 54).
edge(55, 77).
len(55, 77, 64).
edge(55, 130).
len(55, 130, 34).
edge(56, 58).
len(56, 58, 74).
edge(56, 157).
len(56, 157, 47).
arc(57, 64).
edge(57, 77).
len(57, 77, 7).
edge(57, 139).
len(57, 139, 49).
edge(57, 130).
len(57, 130, 43).
arc(59, 138).
edge(59, 184).
len(59, 184, 91).
edge(59, 154).
len(59, 154, 41).
edge(59, 115).
len(59, 115, 46).
edge(60, 88).
len(60, 88, 1).
edge(60, 98).
len(60, 98, 59).
edge(60, 143).
len(60, 143, 69).
edge(61, 183).
len(61, 183, 89).
edge(61, 197).
len(61, 197, 41).
arc(62, 106).
edge(62, 169).
len(62, 169, 33).
edge(62, 176).
len(62, 176, 70).
edge(62, 189).
len(62, 189, 43).
edge(62, 188).
len(62, 188, 77).
edge(62, 63).
len(62, 63, 76).
edge(63, 126).
len(63, 126, 46).
edge(63, 74).
len(63, 74, 33).
edge(63, 93).
len(63, 93, 56).
edge(63, 193).
len(63, 193, 40).
edge(63, 89).
len(63, 89, 89).
edge(63, 88).
len(63, 88, 54).
edge(63, 72).
len(63, 72, 30).
edge(64, 99).
len(64, 99, 78).
edge(64, 75).
len(64, 75, 44).
edge(65, 88).
len(65, 88, 98).
edge(65, 124).
len(65, 124, 3).
edge(65, 95).
len(65, 95, 79).
edge(66, 181).
len(66, 181, 74).
edge(66, 191).
len(66, 191, 80).
edge(66, 139).
len(66, 139, 38).
edge(67, 144).
len(67, 144, 6).
arc(111, 68).
edge(68, 164).
len(68, 164, 39).
edge(69, 80).
len(69, 80, 8).
edge(69, 81).
len(69, 81, 8).
edge(69, 192).
len(69, 192, 99).
edge(70, 187).
len(70, 187, 2).
edge(70, 189).
len(70, 189, 18).
edge(70, 198).
len(70, 198, 35).
edge(72, 101).
len(72, 101, 8).
edge(72, 176).
len(72, 176, 51).
edge(72, 78).
len(72, 78, 30).
edge(73, 125).
len(73, 125, 27).
edge(73, 165).
len(73, 165, 6).
edge(73, 141).
len(73, 141, 78).
edge(73, 140).
len(73, 140, 93).
edge(74, 157).
len(74, 157, 88).
edge(74, 133).
len(74, 133, 10).
edge(74, 147).
len(74, 147, 57).
edge(75, 173).
len(75, 173, 84).
edge(75, 85).
len(75, 85, 2).
edge(75, 118).
len(75, 118, 81).
edge(75, 93).
len(75, 93, 15).
edge(75, 193).
len(75, 193, 37).
edge(76, 92).
len(76, 92, 18).
edge(76, 173).
len(76, 173, 15).
arc(76, 81).
arc(142, 76).
edge(77, 136).
len(77, 136, 85).
edge(77, 137).
len(77, 137, 100).
arc(78, 109).
arc(105, 78).
edge(78, 115).
len(78, 115, 44).
edge(78, 92).
len(78, 92, 77).
edge(79, 168).
len(79, 168, 81).
edge(79, 114).
len(79, 114, 56).
edge(79, 181).
len(79, 181, 20).
edge(80, 173).
len(80, 173, 16).
edge(81, 106).
len(81, 106, 92).
edge(81, 83).
len(81, 83, 35).
edge(82, 114).
len(82, 114, 3).
edge(82, 83).
len(82, 83, 64).
edge(82, 106).
len(82, 106, 56).
edge(82, 181).
len(82, 181, 27).
edge(83, 85).
len(83, 85, 41).
edge(83, 94).
len(83, 94, 21).
edge(83, 112).
len(83, 112, 25).
edge(84, 122).
len(84, 122, 42).
edge(84, 120).
len(84, 120, 72).
edge(85, 117).
len(85, 117, 100).
edge(85, 95).
len(85, 95, 96).
edge(86, 173).
len(86, 173, 95).
edge(86, 153).
len(86, 153, 68).
edge(87, 115).
len(87, 115, 81).
edge(88, 182).
len(88, 182, 50).
edge(89, 171).
len(89, 171, 33).
edge(89, 111).
len(89, 111, 94).
edge(90, 152).
len(90, 152, 70).
edge(92, 131).
len(92, 131, 91).
edge(92, 111).
len(92, 111, 12).
arc(92, 166).
edge(93, 142).
len(93, 142, 67).
edge(93, 181).
len(93, 181, 50).
edge(93, 178).
len(93, 178, 89).
edge(94, 128).
len(94, 128, 11).
edge(94, 180).
len(94, 180, 78).
edge(94, 187).
len(94, 187, 69).
arc(94, 175).
edge(94, 102).
len(94, 102, 6).
edge(95, 146).
len(95, 146, 79).
edge(95, 159).
len(95, 159, 42).
edge(95, 198).
len(95, 198, 92).
edge(95, 127).
len(95, 127, 57).
edge(96, 127).
len(96, 127, 28).
edge(96, 145).
len(96, 145, 14).
edge(96, 193).
len(96, 193, 85).
edge(96, 106).
len(96, 106, 33).
edge(96, 116).
len(96, 116, 96).
edge(97, 140).
len(97, 140, 56).
edge(97, 125).
len(97, 125, 77).
arc(139, 98).
edge(98, 199).
len(98, 199, 1).
edge(98, 115).
len(98, 115, 5).
edge(99, 138).
len(99, 138, 87).
edge(99, 190).
len(99, 190, 100).
edge(99, 152).
len(99, 152, 81).
edge(99, 179).
len(99, 179, 42).
edge(99, 106).
len(99, 106, 21).
edge(99, 147).
len(99, 147, 61).
edge(100, 152).
len(100, 152, 48).
edge(100, 184).
len(100, 184, 87).
edge(100, 160).
len(100, 160, 100).
edge(101, 184).
len(101, 184, 13).
edge(101, 142).
len(101, 142, 72).
edge(102, 191).
len(102, 191, 96).
edge(103, 185).
len(103, 185, 85).
edge(104, 154).
len(104, 154, 24).
edge(104, 132).
len(104, 132, 80).
edge(104, 113).
len(104, 113, 77).
arc(134, 105).
edge(105, 145).
len(105, 145, 46).
arc(172, 108).
edge(108, 146).
len(108, 146, 48).
edge(108, 189).
len(108, 189, 18).
edge(109, 177).
len(109, 177, 29).
edge(110, 150).
len(110, 150, 13).
edge(110, 125).
len(110, 125, 40).
edge(110, 155).
len(110, 155, 4).
edge(111, 178).
len(111, 178, 96).
edge(111, 147).
len(111, 147, 7).
edge(111, 131).
len(111, 131, 30).
edge(112, 162).
len(112, 162, 73).
edge(112, 125).
len(112, 125, 90).
edge(113, 156).
len(113, 156, 46).
edge(113, 164).
len(113, 164, 22).
edge(113, 138).
len(113, 138, 95).
edge(114, 153).
len(114, 153, 96).
edge(114, 156).
len(114, 156, 97).
edge(114, 157).
len(114, 157, 83).
edge(114, 198).
len(114, 198, 97).
edge(114, 124).
len(114, 124, 59).
edge(115, 133).
len(115, 133, 84).
edge(116, 138).
len(116, 138, 29).
edge(116, 190).
len(116, 190, 22).
edge(117, 187).
len(117, 187, 12).
edge(118, 124).
len(118, 124, 53).
edge(119, 131).
len(119, 131, 43).
edge(119, 183).
len(119, 183, 13).
edge(120, 155).
len(120, 155, 56).
edge(121, 146).
len(121, 146, 61).
edge(121, 157).
len(121, 157, 14).
edge(121, 135).
len(121, 135, 10).
edge(122, 178).
len(122, 178, 44).
arc(124, 148).
edge(124, 159).
len(124, 159, 67).
edge(125, 188).
len(125, 188, 20).
edge(126, 154).
len(126, 154, 59).
edge(128, 200).
len(128, 200, 88).
edge(128, 148).
len(128, 148, 35).
edge(129, 142).
len(129, 142, 32).
arc(164, 129).
edge(131, 134).
len(131, 134, 78).
arc(176, 133).
edge(134, 173).
len(134, 173, 78).
edge(135, 146).
len(135, 146, 87).
edge(136, 171).
len(136, 171, 95).
edge(136, 152).
len(136, 152, 44).
arc(138, 153).
edge(140, 182).
len(140, 182, 9).
edge(140, 194).
len(140, 194, 10).
edge(140, 170).
len(140, 170, 99).
edge(140, 188).
len(140, 188, 8).
edge(141, 181).
len(141, 181, 95).
edge(142, 156).
len(142, 156, 43).
arc(171, 143).
edge(144, 186).
len(144, 186, 34).
edge(144, 168).
len(144, 168, 46).
edge(145, 155).
len(145, 155, 66).
edge(145, 172).
len(145, 172, 26).
edge(146, 164).
len(146, 164, 6).
edge(147, 195).
len(147, 195, 82).
edge(147, 164).
len(147, 164, 68).
edge(149, 150).
len(149, 150, 76).
edge(149, 187).
len(149, 187, 24).
edge(150, 154).
len(150, 154, 80).
edge(151, 191).
len(151, 191, 28).
edge(151, 177).
len(151, 177, 51).
edge(151, 192).
len(151, 192, 100).
edge(151, 193).
len(151, 193, 61).
arc(152, 164).
edge(152, 186).
len(152, 186, 41).
edge(152, 176).
len(152, 176, 1).
edge(157, 183).
len(157, 183, 41).
edge(158, 178).
len(158, 178, 12).
edge(159, 193).
len(159, 193, 82).
edge(160, 178).
len(160, 178, 39).
edge(162, 187).
len(162, 187, 79).
edge(164, 175).
len(164, 175, 80).
edge(164, 179).
len(164, 179, 23).
edge(166, 167).
len(166, 167, 64).
edge(167, 196).
len(167, 196, 96).
edge(167, 177).
len(167, 177, 18).
edge(168, 173).
len(168, 173, 35).
edge(168, 199).
len(168, 199, 88).
edge(169, 177).
len(169, 177, 32).
edge(170, 178).
len(170, 178, 56).
edge(172, 186).
len(172, 186, 85).
edge(174, 191).
len(174, 191, 98).
edge(174, 200).
len(174, 200, 75).
edge(176, 194).
len(176, 194, 28).
edge(181, 197).
len(181, 197, 25).
edge(182, 188).
len(182, 188, 63).
edge(182, 184).
len(182, 184, 53).
edge(183, 199).
len(183, 199, 5).
edge(185, 188).
len(185, 188, 71).
edge(190, 196).
len(190, 196, 51).
edge(195, 199).
len(195, 199, 73).
