vtx(1..453).
edge(1, 419).
len(1, 419, 50).
edge(1, 30).
len(1, 30, 55).
edge(1, 400).
len(1, 400, 95).
edge(1, 80).
len(1, 80, 24).
edge(1, 208).
len(1, 208, 21).
edge(1, 161).
len(1, 161, 3).
edge(1, 224).
len(1, 224, 15).
edge(1, 166).
len(1, 166, 51).
edge(2, 364).
len(2, 364, 5).
arc(198, 2).
edge(3, 265).
len(3, 265, 64).
edge(3, 244).
len(3, 244, 57).
edge(3, 354).
len(3, 354, 14).
edge(3, 298).
len(3, 298, 83).
edge(3, 86).
len(3, 86, 27).
edge(4, 96).
len(4, 96, 75).
edge(4, 408).
len(4, 408, 18).
edge(4, 10).
len(4, 10, 82).
edge(4, 207).
len(4, 207, 60).
edge(5, 349).
len(5, 349, 76).
edge(5, 297).
len(5, 297, 13).
edge(6, 248).
len(6, 248, 41).
edge(6, 216).
len(6, 216, 83).
edge(6, 120).
len(6, 120, 39).
edge(6, 372).
len(6, 372, 62).
edge(6, 100).
len(6, 100, 56).
edge(7, 394).
len(7, 394, 30).
edge(7, 177).
len(7, 177, 79).
edge(7, 298).
len(7, 298, 45).
edge(7, 369).
len(7, 369, 74).
edge(8, 440).
len(8, 440, 65).
edge(8, 146).
len(8, 146, 95).
edge(8, 441).
len(8, 441, 18).
edge(8, 292).
len(8, 292, 71).
edge(9, 179).
len(9, 179, 7).
edge(9, 219).
len(9, 219, 65).
edge(9, 350).
len(9, 350, 54).
edge(9, 174).
len(9, 174, 44).
edge(9, 225).
len(9, 225, 77).
edge(9, 71).
len(9, 71, 92).
edge(10, 118).
len(10, 118, 49).
edge(10, 20).
len(10, 20, 37).
edge(10, 208).
len(10, 208, 61).
edge(10, 76).
len(10, 76, 29).
edge(10, 303).
len(10, 303, 43).
edge(10, 271).
len(10, 271, 89).
edge(11, 35).
len(11, 35, 27).
edge(11, 53).
len(11, 53, 25).
edge(11, 205).
len(11, 205, 94).
edge(11, 217).
len(11, 217, 81).
edge(11, 389).
len(11, 389, 64).
edge(12, 193).
len(12, 193, 93).
edge(12, 422).
len(12, 422, 58).
edge(12, 112).
len(12, 112, 9).
edge(12, 364).
len(12, 364, 3).
edge(12, 161).
len(12, 161, 90).
edge(12, 234).
len(12, 234, 75).
edge(12, 267).
len(12, 267, 23).
edge(12, 156).
len(12, 156, 32).
edge(12, 313).
len(12, 313, 80).
edge(12, 403).
len(12, 403, 55).
edge(13, 217).
len(13, 217, 22).
edge(13, 91).
len(13, 91, 34).
edge(13, 317).
len(13, 317, 65).
edge(13, 294).
len(13, 294, 50).
edge(13, 259).
len(13, 259, 5).
edge(13, 364).
len(13, 364, 87).
edge(13, 148).
len(13, 148, 78).
edge(14, 305).
len(14, 305, 59).
edge(14, 86).
len(14, 86, 82).
edge(14, 40).
len(14, 40, 68).
edge(14, 44).
len(14, 44, 75).
edge(14, 369).
len(14, 369, 66).
edge(15, 266).
len(15, 266, 3).
edge(15, 209).
len(15, 209, 98).
edge(15, 187).
len(15, 187, 97).
arc(40, 15).
edge(15, 390).
len(15, 390, 68).
edge(15, 88).
len(15, 88, 28).
edge(15, 200).
len(15, 200, 31).
edge(16, 90).
len(16, 90, 96).
edge(16, 38).
len(16, 38, 44).
edge(16, 288).
len(16, 288, 80).
edge(17, 428).
len(17, 428, 7).
edge(17, 415).
len(17, 415, 32).
edge(17, 137).
len(17, 137, 12).
edge(18, 88).
len(18, 88, 25).
edge(18, 73).
len(18, 73, 86).
edge(18, 359).
len(18, 359, 35).
edge(19, 239).
len(19, 239, 5).
edge(19, 159).
len(19, 159, 44).
edge(19, 87).
len(19, 87, 38).
edge(20, 304).
len(20, 304, 45).
edge(21, 202).
len(21, 202, 50).
edge(21, 276).
len(21, 276, 51).
edge(22, 360).
len(22, 360, 96).
edge(22, 291).
len(22, 291, 61).
edge(22, 243).
len(22, 243, 24).
edge(22, 369).
len(22, 369, 87).
edge(23, 125).
len(23, 125, 16).
edge(24, 185).
len(24, 185, 2).
edge(24, 222).
len(24, 222, 72).
edge(24, 235).
len(24, 235, 71).
arc(24, 368).
edge(24, 301).
len(24, 301, 17).
edge(24, 233).
len(24, 233, 2).
edge(25, 164).
len(25, 164, 35).
edge(25, 65).
len(25, 65, 19).
edge(25, 31).
len(25, 31, 29).
edge(25, 373).
len(25, 373, 6).
edge(26, 295).
len(26, 295, 79).
edge(26, 202).
len(26, 202, 71).
arc(128, 26).
edge(27, 149).
len(27, 149, 51).
edge(27, 156).
len(27, 156, 60).
edge(27, 450).
len(27, 450, 97).
arc(27, 417).
edge(28, 262).
len(28, 262, 87).
edge(28, 64).
len(28, 64, 45).
edge(28, 363).
len(28, 363, 93).
edge(28, 38).
len(28, 38, 44).
edge(28, 84).
len(28, 84, 94).
arc(28, 440).
edge(28, 85).
len(28, 85, 68).
edge(29, 267).
len(29, 267, 75).
edge(29, 304).
len(29, 304, 72).
edge(29, 121).
len(29, 121, 49).
edge(29, 406).
len(29, 406, 32).
edge(29, 176).
len(29, 176, 13).
edge(29, 132).
len(29, 132, 73).
edge(30, 88).
len(30, 88, 97).
edge(30, 41).
len(30, 41, 32).
edge(30, 316).
len(30, 316, 91).
edge(30, 147).
len(30, 147, 23).
edge(31, 67).
len(31, 67, 16).
edge(32, 424).
len(32, 424, 83).
edge(32, 187).
len(32, 187, 83).
edge(32, 345).
len(32, 345, 52).
edge(33, 434).
len(33, 434, 94).
edge(33, 385).
len(33, 385, 5).
edge(33, 376).
len(33, 376, 30).
edge(33, 69).
len(33, 69, 86).
edge(33, 265).
len(33, 265, 36).
arc(33, 104).
edge(34, 146).
len(34, 146, 65).
edge(34, 296).
len(34, 296, 11).
edge(34, 224).
len(34, 224, 69).
edge(34, 178).
len(34, 178, 92).
edge(34, 228).
len(34, 228, 53).
edge(36, 96).
len(36, 96, 86).
edge(36, 157).
len(36, 157, 84).
edge(36, 37).
len(36, 37, 12).
edge(37, 302).
len(37, 302, 84).
edge(37, 392).
len(37, 392, 74).
edge(37, 74).
len(37, 74, 88).
edge(37, 136).
len(37, 136, 88).
edge(38, 449).
len(38, 449, 64).
edge(38, 441).
len(38, 441, 56).
edge(38, 371).
len(38, 371, 12).
edge(38, 130).
len(38, 130, 83).
edge(38, 238).
len(38, 238, 61).
edge(38, 377).
len(38, 377, 43).
edge(39, 61).
len(39, 61, 46).
edge(39, 313).
len(39, 313, 19).
edge(39, 179).
len(39, 179, 70).
edge(39, 322).
len(39, 322, 73).
edge(39, 447).
len(39, 447, 4).
edge(39, 357).
len(39, 357, 28).
edge(39, 48).
len(39, 48, 14).
edge(39, 248).
len(39, 248, 66).
edge(40, 107).
len(40, 107, 16).
edge(40, 149).
len(40, 149, 75).
edge(40, 319).
len(40, 319, 52).
edge(40, 361).
len(40, 361, 59).
edge(41, 228).
len(41, 228, 18).
edge(41, 345).
len(41, 345, 82).
edge(41, 103).
len(41, 103, 26).
edge(42, 178).
len(42, 178, 44).
edge(42, 297).
len(42, 297, 71).
edge(42, 383).
len(42, 383, 61).
edge(43, 142).
len(43, 142, 92).
edge(43, 178).
len(43, 178, 55).
edge(43, 415).
len(43, 415, 19).
edge(43, 244).
len(43, 244, 79).
edge(43, 329).
len(43, 329, 74).
edge(44, 330).
len(44, 330, 93).
edge(44, 278).
len(44, 278, 31).
edge(44, 68).
len(44, 68, 30).
arc(438, 44).
edge(44, 334).
len(44, 334, 32).
edge(44, 419).
len(44, 419, 87).
edge(44, 109).
len(44, 109, 62).
edge(45, 135).
len(45, 135, 69).
edge(45, 252).
len(45, 252, 39).
edge(46, 166).
len(46, 166, 89).
edge(46, 75).
len(46, 75, 42).
edge(47, 327).
len(47, 327, 94).
edge(47, 242).
len(47, 242, 53).
edge(47, 321).
len(47, 321, 70).
edge(47, 366).
len(47, 366, 27).
edge(47, 114).
len(47, 114, 3).
edge(47, 249).
len(47, 249, 43).
edge(48, 185).
len(48, 185, 35).
edge(48, 155).
len(48, 155, 28).
edge(49, 346).
len(49, 346, 100).
edge(49, 105).
len(49, 105, 63).
edge(49, 400).
len(49, 400, 93).
edge(50, 427).
len(50, 427, 22).
edge(50, 422).
len(50, 422, 80).
edge(50, 391).
len(50, 391, 80).
edge(50, 451).
len(50, 451, 47).
edge(51, 285).
len(51, 285, 98).
edge(51, 128).
len(51, 128, 23).
edge(51, 210).
len(51, 210, 51).
edge(51, 119).
len(51, 119, 3).
edge(52, 89).
len(52, 89, 56).
edge(52, 154).
len(52, 154, 25).
edge(52, 96).
len(52, 96, 31).
edge(52, 228).
len(52, 228, 53).
edge(52, 248).
len(52, 248, 74).
edge(52, 255).
len(52, 255, 26).
edge(53, 147).
len(53, 147, 9).
edge(53, 351).
len(53, 351, 40).
edge(53, 348).
len(53, 348, 29).
edge(53, 374).
len(53, 374, 16).
edge(53, 298).
len(53, 298, 2).
edge(53, 281).
len(53, 281, 100).
edge(53, 378).
len(53, 378, 54).
edge(54, 364).
len(54, 364, 100).
edge(55, 262).
len(55, 262, 35).
edge(55, 254).
len(55, 254, 5).
edge(55, 441).
len(55, 441, 53).
edge(55, 91).
len(55, 91, 94).
edge(55, 392).
len(55, 392, 21).
edge(56, 300).
len(56, 300, 29).
edge(56, 256).
len(56, 256, 60).
edge(56, 203).
len(56, 203, 22).
edge(56, 276).
len(56, 276, 81).
edge(56, 254).
len(56, 254, 44).
edge(57, 419).
len(57, 419, 50).
edge(57, 396).
len(57, 396, 98).
edge(57, 349).
len(57, 349, 98).
edge(57, 362).
len(57, 362, 17).
edge(57, 442).
len(57, 442, 17).
edge(57, 409).
len(57, 409, 2).
edge(58, 331).
len(58, 331, 99).
edge(58, 223).
len(58, 223, 27).
edge(58, 220).
len(58, 220, 45).
edge(58, 110).
len(58, 110, 93).
edge(58, 197).
len(58, 197, 43).
edge(58, 116).
len(58, 116, 33).
edge(59, 181).
len(59, 181, 71).
edge(59, 64).
len(59, 64, 93).
edge(59, 437).
len(59, 437, 4).
edge(59, 160).
len(59, 160, 55).
edge(59, 353).
len(59, 353, 31).
edge(59, 417).
len(59, 417, 37).
edge(60, 394).
len(60, 394, 60).
arc(419, 60).
edge(60, 113).
len(60, 113, 22).
edge(60, 406).
len(60, 406, 36).
edge(60, 219).
len(60, 219, 84).
edge(61, 307).
len(61, 307, 61).
edge(61, 313).
len(61, 313, 11).
edge(61, 427).
len(61, 427, 59).
edge(62, 208).
len(62, 208, 21).
edge(62, 366).
len(62, 366, 55).
edge(63, 153).
len(63, 153, 69).
edge(63, 113).
len(63, 113, 35).
edge(63, 324).
len(63, 324, 71).
edge(63, 217).
len(63, 217, 33).
edge(63, 235).
len(63, 235, 13).
arc(64, 244).
edge(64, 319).
len(64, 319, 53).
edge(64, 365).
len(64, 365, 77).
edge(64, 211).
len(64, 211, 10).
edge(64, 334).
len(64, 334, 71).
edge(64, 444).
len(64, 444, 40).
edge(64, 90).
len(64, 90, 85).
edge(65, 137).
len(65, 137, 82).
edge(65, 415).
len(65, 415, 53).
edge(65, 366).
len(65, 366, 44).
edge(66, 304).
len(66, 304, 14).
edge(66, 421).
len(66, 421, 46).
edge(66, 160).
len(66, 160, 76).
edge(66, 412).
len(66, 412, 59).
edge(66, 319).
len(66, 319, 85).
edge(66, 135).
len(66, 135, 13).
edge(66, 336).
len(66, 336, 22).
edge(66, 74).
len(66, 74, 71).
edge(66, 395).
len(66, 395, 17).
edge(67, 125).
len(67, 125, 84).
edge(67, 226).
len(67, 226, 87).
edge(68, 169).
len(68, 169, 31).
edge(69, 230).
len(69, 230, 65).
edge(69, 345).
len(69, 345, 80).
edge(69, 311).
len(69, 311, 55).
edge(69, 377).
len(69, 377, 10).
edge(70, 288).
len(70, 288, 41).
edge(70, 296).
len(70, 296, 96).
edge(71, 331).
len(71, 331, 22).
edge(71, 298).
len(71, 298, 97).
edge(72, 163).
len(72, 163, 72).
edge(72, 306).
len(72, 306, 63).
edge(72, 158).
len(72, 158, 77).
edge(73, 308).
len(73, 308, 93).
edge(73, 431).
len(73, 431, 20).
edge(74, 198).
len(74, 198, 83).
edge(75, 442).
len(75, 442, 27).
edge(75, 131).
len(75, 131, 69).
edge(75, 164).
len(75, 164, 31).
edge(76, 125).
len(76, 125, 19).
edge(76, 95).
len(76, 95, 95).
edge(76, 426).
len(76, 426, 99).
edge(77, 158).
len(77, 158, 71).
edge(77, 246).
len(77, 246, 15).
edge(78, 140).
len(78, 140, 88).
edge(78, 159).
len(78, 159, 13).
edge(78, 222).
len(78, 222, 55).
edge(78, 256).
len(78, 256, 25).
edge(79, 170).
len(79, 170, 35).
edge(79, 117).
len(79, 117, 65).
edge(80, 276).
len(80, 276, 83).
edge(81, 109).
len(81, 109, 59).
edge(81, 183).
len(81, 183, 84).
edge(82, 448).
len(82, 448, 2).
edge(82, 411).
len(82, 411, 93).
edge(82, 265).
len(82, 265, 48).
edge(82, 359).
len(82, 359, 35).
edge(83, 233).
len(83, 233, 29).
edge(83, 345).
len(83, 345, 2).
edge(83, 358).
len(83, 358, 83).
edge(83, 446).
len(83, 446, 31).
edge(84, 178).
len(84, 178, 40).
edge(84, 244).
len(84, 244, 20).
edge(85, 212).
len(85, 212, 79).
edge(85, 400).
len(85, 400, 4).
edge(85, 357).
len(85, 357, 93).
edge(85, 182).
len(85, 182, 80).
edge(85, 331).
len(85, 331, 34).
edge(86, 164).
len(86, 164, 86).
edge(86, 434).
len(86, 434, 95).
edge(86, 185).
len(86, 185, 91).
edge(86, 410).
len(86, 410, 90).
edge(87, 394).
len(87, 394, 9).
edge(87, 234).
len(87, 234, 97).
edge(87, 178).
len(87, 178, 27).
edge(88, 226).
len(88, 226, 43).
edge(89, 134).
len(89, 134, 99).
edge(89, 280).
len(89, 280, 79).
edge(89, 197).
len(89, 197, 25).
edge(89, 318).
len(89, 318, 48).
edge(90, 135).
len(90, 135, 16).
edge(91, 433).
len(91, 433, 86).
edge(91, 375).
len(91, 375, 93).
edge(91, 299).
len(91, 299, 56).
edge(91, 258).
len(91, 258, 72).
edge(91, 281).
len(91, 281, 42).
edge(92, 442).
len(92, 442, 39).
edge(92, 237).
len(92, 237, 43).
edge(92, 413).
len(92, 413, 25).
edge(92, 244).
len(92, 244, 31).
edge(93, 318).
len(93, 318, 60).
edge(93, 368).
len(93, 368, 27).
edge(93, 275).
len(93, 275, 4).
edge(93, 116).
len(93, 116, 52).
edge(94, 145).
len(94, 145, 19).
edge(94, 329).
len(94, 329, 48).
edge(94, 230).
len(94, 230, 91).
edge(94, 306).
len(94, 306, 44).
edge(94, 304).
len(94, 304, 65).
edge(95, 140).
len(95, 140, 72).
edge(95, 129).
len(95, 129, 23).
edge(96, 312).
len(96, 312, 34).
edge(96, 357).
len(96, 357, 32).
edge(97, 252).
len(97, 252, 68).
edge(97, 315).
len(97, 315, 6).
edge(97, 302).
len(97, 302, 14).
edge(98, 123).
len(98, 123, 2).
edge(98, 153).
len(98, 153, 58).
edge(99, 436).
len(99, 436, 75).
edge(99, 269).
len(99, 269, 51).
edge(99, 178).
len(99, 178, 84).
edge(100, 393).
len(100, 393, 45).
edge(100, 416).
len(100, 416, 97).
edge(100, 334).
len(100, 334, 23).
edge(101, 175).
len(101, 175, 65).
edge(101, 399).
len(101, 399, 6).
edge(101, 111).
len(101, 111, 35).
edge(102, 228).
len(102, 228, 11).
edge(102, 105).
len(102, 105, 63).
edge(103, 426).
len(103, 426, 46).
edge(103, 450).
len(103, 450, 11).
edge(103, 323).
len(103, 323, 66).
edge(103, 237).
len(103, 237, 51).
edge(103, 341).
len(103, 341, 43).
edge(104, 279).
len(104, 279, 35).
edge(104, 246).
len(104, 246, 15).
edge(105, 332).
len(105, 332, 6).
edge(105, 262).
len(105, 262, 37).
arc(106, 158).
edge(106, 315).
len(106, 315, 27).
edge(106, 413).
len(106, 413, 70).
arc(107, 267).
edge(108, 122).
len(108, 122, 59).
edge(108, 241).
len(108, 241, 81).
edge(108, 264).
len(108, 264, 97).
edge(108, 191).
len(108, 191, 4).
edge(108, 343).
len(108, 343, 84).
edge(109, 403).
len(109, 403, 9).
edge(109, 293).
len(109, 293, 85).
edge(109, 253).
len(109, 253, 27).
edge(109, 341).
len(109, 341, 34).
edge(109, 127).
len(109, 127, 59).
edge(109, 377).
len(109, 377, 14).
edge(110, 272).
len(110, 272, 26).
edge(110, 278).
len(110, 278, 10).
edge(111, 431).
len(111, 431, 69).
edge(111, 294).
len(111, 294, 2).
edge(111, 315).
len(111, 315, 62).
edge(112, 180).
len(112, 180, 2).
edge(112, 135).
len(112, 135, 51).
edge(112, 140).
len(112, 140, 17).
edge(112, 348).
len(112, 348, 93).
edge(114, 400).
len(114, 400, 80).
edge(114, 216).
len(114, 216, 1).
edge(114, 450).
len(114, 450, 52).
edge(114, 376).
len(114, 376, 5).
edge(114, 431).
len(114, 431, 65).
edge(114, 167).
len(114, 167, 8).
edge(114, 164).
len(114, 164, 15).
edge(114, 132).
len(114, 132, 54).
edge(115, 300).
len(115, 300, 11).
edge(115, 236).
len(115, 236, 41).
edge(115, 358).
len(115, 358, 19).
edge(116, 260).
len(116, 260, 92).
edge(116, 424).
len(116, 424, 2).
edge(116, 417).
len(116, 417, 65).
edge(117, 191).
len(117, 191, 36).
edge(117, 358).
len(117, 358, 76).
arc(117, 379).
edge(117, 182).
len(117, 182, 2).
edge(118, 380).
len(118, 380, 92).
edge(119, 236).
len(119, 236, 49).
edge(119, 366).
len(119, 366, 11).
edge(120, 405).
len(120, 405, 8).
edge(120, 372).
len(120, 372, 43).
edge(120, 368).
len(120, 368, 18).
edge(121, 207).
len(121, 207, 48).
edge(121, 330).
len(121, 330, 27).
edge(121, 228).
len(121, 228, 74).
edge(121, 187).
len(121, 187, 95).
edge(121, 192).
len(121, 192, 9).
edge(121, 416).
len(121, 416, 72).
edge(122, 328).
len(122, 328, 52).
edge(122, 438).
len(122, 438, 92).
edge(122, 315).
len(122, 315, 92).
edge(122, 362).
len(122, 362, 55).
edge(123, 447).
len(123, 447, 43).
edge(123, 405).
len(123, 405, 35).
edge(123, 227).
len(123, 227, 36).
edge(124, 197).
len(124, 197, 62).
edge(124, 357).
len(124, 357, 49).
edge(125, 310).
len(125, 310, 55).
edge(125, 161).
len(125, 161, 36).
edge(125, 374).
len(125, 374, 50).
edge(125, 396).
len(125, 396, 27).
edge(125, 373).
len(125, 373, 52).
edge(126, 396).
len(126, 396, 64).
edge(126, 173).
len(126, 173, 37).
arc(380, 126).
edge(127, 306).
len(127, 306, 9).
edge(127, 151).
len(127, 151, 100).
edge(127, 175).
len(127, 175, 62).
edge(127, 192).
len(127, 192, 93).
edge(128, 448).
len(128, 448, 95).
edge(128, 327).
len(128, 327, 76).
edge(129, 143).
len(129, 143, 83).
edge(129, 140).
len(129, 140, 28).
edge(129, 341).
len(129, 341, 47).
edge(129, 347).
len(129, 347, 94).
edge(130, 281).
len(130, 281, 59).
edge(130, 385).
len(130, 385, 77).
edge(131, 359).
len(131, 359, 14).
edge(131, 405).
len(131, 405, 54).
edge(133, 155).
len(133, 155, 83).
edge(133, 333).
len(133, 333, 8).
edge(133, 140).
len(133, 140, 14).
edge(133, 250).
len(133, 250, 64).
edge(134, 178).
len(134, 178, 49).
edge(134, 325).
len(134, 325, 42).
edge(135, 213).
len(135, 213, 6).
edge(135, 288).
len(135, 288, 63).
edge(135, 359).
len(135, 359, 37).
edge(136, 269).
len(136, 269, 82).
edge(137, 449).
len(137, 449, 40).
edge(138, 367).
len(138, 367, 15).
edge(138, 186).
len(138, 186, 99).
edge(138, 161).
len(138, 161, 28).
edge(138, 368).
len(138, 368, 85).
edge(138, 356).
len(138, 356, 5).
edge(138, 292).
len(138, 292, 32).
edge(139, 217).
len(139, 217, 65).
edge(139, 255).
len(139, 255, 98).
edge(140, 286).
len(140, 286, 18).
edge(141, 285).
len(141, 285, 90).
edge(142, 319).
len(142, 319, 81).
edge(142, 245).
len(142, 245, 55).
edge(142, 246).
len(142, 246, 91).
edge(143, 250).
len(143, 250, 42).
edge(143, 263).
len(143, 263, 58).
edge(144, 234).
len(144, 234, 35).
edge(144, 244).
len(144, 244, 87).
edge(144, 347).
len(144, 347, 56).
edge(144, 330).
len(144, 330, 86).
edge(144, 424).
len(144, 424, 3).
edge(145, 227).
len(145, 227, 70).
edge(145, 430).
len(145, 430, 70).
edge(145, 389).
len(145, 389, 45).
edge(146, 397).
len(146, 397, 74).
edge(147, 285).
len(147, 285, 58).
edge(148, 259).
len(148, 259, 81).
edge(148, 385).
len(148, 385, 86).
edge(148, 325).
len(148, 325, 49).
edge(149, 179).
len(149, 179, 61).
edge(149, 350).
len(149, 350, 74).
edge(149, 205).
len(149, 205, 100).
edge(149, 187).
len(149, 187, 53).
edge(149, 150).
len(149, 150, 32).
edge(149, 383).
len(149, 383, 77).
edge(150, 443).
len(150, 443, 84).
edge(150, 171).
len(150, 171, 27).
edge(150, 191).
len(150, 191, 100).
edge(150, 248).
len(150, 248, 76).
edge(151, 214).
len(151, 214, 71).
edge(151, 195).
len(151, 195, 6).
edge(151, 269).
len(151, 269, 97).
edge(151, 154).
len(151, 154, 73).
edge(152, 303).
len(152, 303, 51).
edge(152, 244).
len(152, 244, 94).
edge(152, 446).
len(152, 446, 48).
edge(153, 287).
len(153, 287, 18).
edge(153, 412).
len(153, 412, 31).
edge(154, 230).
len(154, 230, 67).
edge(155, 179).
len(155, 179, 94).
edge(155, 329).
len(155, 329, 97).
edge(155, 190).
len(155, 190, 18).
edge(155, 362).
len(155, 362, 20).
edge(156, 390).
len(156, 390, 70).
edge(156, 440).
len(156, 440, 19).
edge(157, 451).
len(157, 451, 23).
edge(157, 171).
len(157, 171, 58).
edge(158, 162).
len(158, 162, 59).
edge(158, 361).
len(158, 361, 74).
edge(159, 398).
len(159, 398, 13).
edge(159, 373).
len(159, 373, 74).
edge(160, 289).
len(160, 289, 76).
edge(161, 307).
len(161, 307, 56).
edge(161, 268).
len(161, 268, 9).
edge(161, 412).
len(161, 412, 8).
edge(161, 267).
len(161, 267, 8).
edge(162, 390).
len(162, 390, 72).
edge(162, 201).
len(162, 201, 23).
edge(162, 279).
len(162, 279, 40).
edge(162, 341).
len(162, 341, 65).
edge(163, 241).
len(163, 241, 80).
edge(163, 233).
len(163, 233, 12).
edge(163, 238).
len(163, 238, 56).
edge(164, 420).
len(164, 420, 94).
edge(164, 404).
len(164, 404, 32).
edge(165, 307).
len(165, 307, 79).
edge(166, 239).
len(166, 239, 37).
arc(270, 166).
edge(166, 210).
len(166, 210, 10).
edge(167, 346).
len(167, 346, 60).
edge(167, 451).
len(167, 451, 52).
edge(167, 311).
len(167, 311, 27).
edge(168, 267).
len(168, 267, 82).
edge(168, 306).
len(168, 306, 27).
edge(168, 291).
len(168, 291, 59).
edge(168, 209).
len(168, 209, 57).
edge(168, 255).
len(168, 255, 77).
edge(169, 388).
len(169, 388, 5).
edge(169, 387).
len(169, 387, 30).
edge(169, 293).
len(169, 293, 69).
edge(170, 175).
len(170, 175, 11).
edge(171, 216).
len(171, 216, 84).
edge(172, 303).
len(172, 303, 38).
edge(172, 182).
len(172, 182, 22).
edge(172, 190).
len(172, 190, 61).
edge(173, 316).
len(173, 316, 70).
edge(173, 204).
len(173, 204, 52).
edge(174, 438).
len(174, 438, 81).
edge(175, 411).
len(175, 411, 84).
edge(175, 382).
len(175, 382, 99).
arc(355, 176).
edge(176, 397).
len(176, 397, 78).
edge(176, 364).
len(176, 364, 24).
edge(176, 405).
len(176, 405, 59).
edge(178, 432).
len(178, 432, 27).
edge(179, 380).
len(179, 380, 89).
edge(180, 199).
len(180, 199, 42).
edge(180, 354).
len(180, 354, 44).
edge(181, 291).
len(181, 291, 35).
edge(183, 281).
len(183, 281, 78).
edge(183, 290).
len(183, 290, 77).
edge(183, 214).
len(183, 214, 99).
edge(184, 282).
len(184, 282, 77).
edge(184, 320).
len(184, 320, 48).
arc(185, 326).
edge(186, 254).
len(186, 254, 73).
edge(186, 307).
len(186, 307, 41).
edge(186, 279).
len(186, 279, 82).
edge(186, 339).
len(186, 339, 100).
edge(187, 269).
len(187, 269, 41).
edge(187, 367).
len(187, 367, 48).
edge(188, 313).
len(188, 313, 59).
edge(188, 208).
len(188, 208, 72).
arc(324, 188).
edge(188, 203).
len(188, 203, 98).
edge(189, 207).
len(189, 207, 56).
edge(190, 423).
len(190, 423, 24).
edge(190, 328).
len(190, 328, 79).
edge(190, 350).
len(190, 350, 29).
edge(190, 282).
len(190, 282, 21).
edge(190, 398).
len(190, 398, 5).
edge(190, 416).
len(190, 416, 97).
edge(191, 431).
len(191, 431, 12).
edge(192, 223).
len(192, 223, 66).
edge(192, 208).
len(192, 208, 15).
edge(193, 284).
len(193, 284, 23).
edge(193, 206).
len(193, 206, 25).
edge(194, 215).
len(194, 215, 33).
edge(194, 231).
len(194, 231, 29).
edge(194, 216).
len(194, 216, 66).
edge(194, 233).
len(194, 233, 4).
edge(195, 196).
len(195, 196, 13).
edge(195, 400).
len(195, 400, 78).
edge(195, 337).
len(195, 337, 73).
edge(195, 231).
len(195, 231, 14).
edge(196, 287).
len(196, 287, 82).
edge(196, 271).
len(196, 271, 56).
edge(196, 365).
len(196, 365, 82).
arc(335, 196).
edge(197, 350).
len(197, 350, 72).
edge(197, 242).
len(197, 242, 16).
edge(198, 300).
len(198, 300, 8).
edge(198, 359).
len(198, 359, 81).
edge(198, 285).
len(198, 285, 90).
edge(198, 377).
len(198, 377, 96).
edge(199, 413).
len(199, 413, 85).
edge(199, 263).
len(199, 263, 7).
edge(200, 236).
len(200, 236, 47).
edge(201, 277).
len(201, 277, 53).
edge(201, 283).
len(201, 283, 55).
edge(203, 262).
len(203, 262, 81).
edge(203, 409).
len(203, 409, 59).
edge(204, 234).
len(204, 234, 27).
edge(204, 361).
len(204, 361, 38).
edge(204, 339).
len(204, 339, 50).
edge(205, 443).
len(205, 443, 65).
edge(206, 444).
len(206, 444, 15).
edge(206, 440).
len(206, 440, 51).
edge(206, 379).
len(206, 379, 13).
edge(206, 365).
len(206, 365, 46).
edge(207, 445).
len(207, 445, 17).
edge(207, 402).
len(207, 402, 34).
edge(207, 320).
len(207, 320, 91).
edge(209, 232).
len(209, 232, 15).
edge(209, 386).
len(209, 386, 56).
edge(209, 248).
len(209, 248, 100).
edge(209, 362).
len(209, 362, 43).
edge(210, 261).
len(210, 261, 14).
edge(210, 279).
len(210, 279, 69).
edge(211, 442).
len(211, 442, 37).
edge(212, 321).
len(212, 321, 75).
edge(212, 241).
len(212, 241, 35).
edge(212, 344).
len(212, 344, 59).
edge(213, 216).
len(213, 216, 29).
edge(213, 237).
len(213, 237, 75).
edge(213, 379).
len(213, 379, 33).
edge(214, 364).
len(214, 364, 100).
edge(215, 409).
len(215, 409, 99).
edge(215, 255).
len(215, 255, 82).
edge(215, 415).
len(215, 415, 80).
edge(215, 354).
len(215, 354, 38).
edge(216, 332).
len(216, 332, 54).
edge(217, 385).
len(217, 385, 52).
edge(218, 254).
len(218, 254, 57).
edge(219, 256).
len(219, 256, 49).
edge(220, 399).
len(220, 399, 17).
edge(221, 400).
len(221, 400, 44).
edge(221, 355).
len(221, 355, 16).
edge(222, 238).
len(222, 238, 78).
edge(222, 271).
len(222, 271, 47).
edge(223, 309).
len(223, 309, 12).
edge(223, 331).
len(223, 331, 89).
edge(224, 264).
len(224, 264, 95).
edge(225, 428).
len(225, 428, 47).
edge(226, 291).
len(226, 291, 81).
edge(228, 267).
len(228, 267, 58).
edge(228, 302).
len(228, 302, 85).
edge(228, 316).
len(228, 316, 77).
edge(229, 327).
len(229, 327, 89).
edge(229, 295).
len(229, 295, 45).
edge(229, 389).
len(229, 389, 27).
edge(230, 275).
len(230, 275, 30).
edge(230, 421).
len(230, 421, 66).
edge(230, 290).
len(230, 290, 78).
edge(231, 284).
len(231, 284, 94).
edge(231, 420).
len(231, 420, 32).
edge(232, 268).
len(232, 268, 66).
edge(233, 246).
len(233, 246, 10).
edge(233, 266).
len(233, 266, 54).
edge(233, 354).
len(233, 354, 52).
edge(234, 311).
len(234, 311, 2).
edge(234, 328).
len(234, 328, 62).
edge(236, 368).
len(236, 368, 62).
edge(237, 246).
len(237, 246, 63).
edge(237, 338).
len(237, 338, 33).
edge(237, 265).
len(237, 265, 81).
arc(237, 352).
edge(238, 444).
len(238, 444, 68).
edge(238, 261).
len(238, 261, 92).
edge(239, 427).
len(239, 427, 73).
arc(372, 239).
arc(239, 448).
edge(240, 405).
len(240, 405, 58).
edge(240, 425).
len(240, 425, 28).
edge(241, 387).
len(241, 387, 63).
edge(242, 402).
len(242, 402, 72).
edge(242, 363).
len(242, 363, 8).
edge(243, 432).
len(243, 432, 33).
edge(244, 432).
len(244, 432, 46).
edge(244, 248).
len(244, 248, 47).
edge(244, 331).
len(244, 331, 26).
edge(245, 261).
len(245, 261, 38).
edge(247, 296).
len(247, 296, 5).
edge(248, 433).
len(248, 433, 62).
edge(248, 381).
len(248, 381, 91).
edge(249, 344).
len(249, 344, 1).
edge(249, 408).
len(249, 408, 83).
edge(250, 300).
len(250, 300, 80).
edge(250, 412).
len(250, 412, 10).
edge(251, 332).
len(251, 332, 28).
edge(252, 351).
len(252, 351, 84).
edge(253, 406).
len(253, 406, 39).
edge(253, 379).
len(253, 379, 66).
edge(254, 305).
len(254, 305, 66).
edge(254, 434).
len(254, 434, 55).
edge(254, 390).
len(254, 390, 59).
edge(255, 440).
len(255, 440, 74).
edge(255, 385).
len(255, 385, 88).
edge(256, 441).
len(256, 441, 72).
edge(256, 295).
len(256, 295, 51).
edge(257, 284).
len(257, 284, 75).
edge(257, 323).
len(257, 323, 70).
edge(257, 433).
len(257, 433, 17).
edge(257, 402).
len(257, 402, 100).
edge(257, 287).
len(257, 287, 3).
edge(258, 443).
len(258, 443, 60).
edge(259, 400).
len(259, 400, 95).
edge(262, 390).
len(262, 390, 60).
edge(263, 431).
len(263, 431, 56).
edge(264, 340).
len(264, 340, 26).
edge(264, 283).
len(264, 283, 45).
edge(265, 310).
len(265, 310, 35).
edge(266, 452).
len(266, 452, 11).
edge(267, 441).
len(267, 441, 23).
edge(268, 426).
len(268, 426, 34).
edge(269, 348).
len(269, 348, 79).
edge(269, 403).
len(269, 403, 43).
edge(270, 345).
len(270, 345, 53).
edge(270, 385).
len(270, 385, 30).
edge(271, 291).
len(271, 291, 60).
edge(272, 442).
len(272, 442, 57).
edge(273, 289).
len(273, 289, 91).
edge(273, 399).
len(273, 399, 94).
edge(274, 441).
len(274, 441, 42).
edge(274, 311).
len(274, 311, 75).
edge(275, 300).
len(275, 300, 44).
edge(275, 344).
len(275, 344, 8).
edge(275, 438).
len(275, 438, 13).
edge(276, 331).
len(276, 331, 46).
edge(276, 428).
len(276, 428, 86).
edge(277, 378).
len(277, 378, 74).
edge(277, 421).
len(277, 421, 86).
edge(278, 397).
len(278, 397, 76).
edge(279, 310).
len(279, 310, 62).
edge(279, 418).
len(279, 418, 50).
edge(279, 440).
len(279, 440, 89).
edge(280, 316).
len(280, 316, 81).
edge(281, 403).
len(281, 403, 23).
edge(283, 345).
len(283, 345, 57).
arc(283, 334).
edge(284, 412).
len(284, 412, 47).
edge(284, 381).
len(284, 381, 11).
edge(285, 399).
len(285, 399, 85).
edge(286, 430).
len(286, 430, 72).
edge(287, 323).
len(287, 323, 35).
edge(288, 450).
len(288, 450, 81).
edge(288, 449).
len(288, 449, 64).
edge(289, 448).
len(289, 448, 67).
edge(290, 388).
len(290, 388, 27).
edge(291, 320).
len(291, 320, 65).
edge(293, 412).
len(293, 412, 1).
edge(293, 341).
len(293, 341, 34).
edge(294, 367).
len(294, 367, 29).
edge(294, 318).
len(294, 318, 71).
edge(296, 450).
len(296, 450, 53).
edge(297, 409).
len(297, 409, 14).
edge(297, 449).
len(297, 449, 9).
edge(298, 441).
len(298, 441, 63).
edge(298, 444).
len(298, 444, 6).
edge(301, 341).
len(301, 341, 92).
edge(301, 330).
len(301, 330, 99).
edge(301, 395).
len(301, 395, 22).
edge(303, 418).
len(303, 418, 2).
edge(304, 320).
len(304, 320, 24).
edge(305, 449).
len(305, 449, 81).
edge(305, 372).
len(305, 372, 92).
edge(305, 331).
len(305, 331, 79).
edge(306, 343).
len(306, 343, 46).
edge(306, 318).
len(306, 318, 7).
edge(307, 386).
len(307, 386, 35).
edge(309, 368).
len(309, 368, 69).
edge(310, 387).
len(310, 387, 99).
edge(310, 368).
len(310, 368, 26).
edge(310, 398).
len(310, 398, 76).
edge(311, 422).
len(311, 422, 82).
edge(314, 346).
len(314, 346, 45).
edge(314, 348).
len(314, 348, 85).
edge(314, 425).
len(314, 425, 13).
edge(315, 327).
len(315, 327, 93).
edge(315, 443).
len(315, 443, 95).
edge(316, 437).
len(316, 437, 98).
edge(317, 392).
len(317, 392, 4).
edge(319, 435).
len(319, 435, 100).
arc(320, 321).
edge(322, 371).
len(322, 371, 27).
edge(322, 453).
len(322, 453, 58).
edge(323, 390).
len(323, 390, 43).
edge(323, 366).
len(323, 366, 88).
edge(324, 417).
len(324, 417, 1).
edge(324, 447).
len(324, 447, 34).
edge(324, 413).
len(324, 413, 48).
edge(325, 385).
len(325, 385, 75).
edge(325, 401).
len(325, 401, 51).
edge(326, 448).
len(326, 448, 10).
edge(326, 352).
len(326, 352, 78).
edge(327, 329).
len(327, 329, 55).
edge(328, 442).
len(328, 442, 35).
edge(328, 419).
len(328, 419, 49).
edge(331, 364).
len(331, 364, 12).
edge(334, 453).
len(334, 453, 98).
edge(335, 376).
len(335, 376, 35).
edge(335, 408).
len(335, 408, 40).
edge(336, 425).
len(336, 425, 77).
edge(337, 341).
len(337, 341, 70).
edge(338, 358).
len(338, 358, 31).
edge(338, 391).
len(338, 391, 67).
edge(338, 342).
len(338, 342, 3).
edge(339, 384).
len(339, 384, 82).
edge(339, 441).
len(339, 441, 2).
edge(339, 422).
len(339, 422, 11).
edge(341, 392).
len(341, 392, 88).
edge(342, 448).
len(342, 448, 15).
edge(343, 373).
len(343, 373, 47).
edge(345, 377).
len(345, 377, 25).
edge(346, 379).
len(346, 379, 3).
edge(347, 414).
len(347, 414, 71).
edge(349, 372).
len(349, 372, 25).
edge(349, 423).
len(349, 423, 21).
edge(349, 354).
len(349, 354, 74).
edge(350, 368).
len(350, 368, 41).
edge(350, 420).
len(350, 420, 3).
arc(350, 424).
edge(350, 441).
len(350, 441, 33).
edge(352, 445).
len(352, 445, 10).
edge(352, 438).
len(352, 438, 16).
edge(353, 354).
len(353, 354, 88).
edge(354, 447).
len(354, 447, 100).
edge(357, 394).
len(357, 394, 30).
edge(358, 359).
len(358, 359, 76).
edge(359, 437).
len(359, 437, 1).
edge(359, 450).
len(359, 450, 30).
edge(361, 442).
len(361, 442, 87).
edge(362, 416).
len(362, 416, 23).
edge(366, 442).
len(366, 442, 8).
edge(366, 412).
len(366, 412, 58).
edge(370, 429).
len(370, 429, 92).
edge(370, 407).
len(370, 407, 98).
edge(370, 421).
len(370, 421, 17).
edge(372, 423).
len(372, 423, 13).
edge(373, 430).
len(373, 430, 72).
edge(375, 378).
len(375, 378, 75).
edge(376, 451).
len(376, 451, 93).
edge(377, 382).
len(377, 382, 99).
edge(377, 428).
len(377, 428, 21).
edge(380, 446).
len(380, 446, 79).
edge(381, 406).
len(381, 406, 14).
edge(384, 418).
len(384, 418, 77).
edge(384, 422).
len(384, 422, 46).
edge(389, 427).
len(389, 427, 51).
edge(390, 423).
len(390, 423, 50).
edge(390, 438).
len(390, 438, 10).
edge(393, 414).
len(393, 414, 21).
edge(394, 442).
len(394, 442, 38).
edge(394, 425).
len(394, 425, 38).
edge(397, 414).
len(397, 414, 20).
edge(401, 437).
len(401, 437, 42).
edge(402, 431).
len(402, 431, 12).
edge(407, 418).
len(407, 418, 30).
edge(409, 447).
len(409, 447, 7).
edge(410, 447).
len(410, 447, 25).
edge(416, 439).
len(416, 439, 70).
arc(423, 436).
edge(424, 433).
len(424, 433, 21).
edge(428, 447).
len(428, 447, 61).
edge(428, 442).
len(428, 442, 40).
arc(432, 444).
edge(433, 435).
len(433, 435, 30).
edge(435, 436).
len(435, 436, 63).
edge(440, 451).
len(440, 451, 3).
