vtx(1..300).
edge(1, 199).
len(1, 199, 41).
edge(1, 114).
len(1, 114, 13).
edge(1, 265).
len(1, 265, 73).
edge(1, 88).
len(1, 88, 38).
edge(1, 7).
len(1, 7, 92).
edge(2, 128).
len(2, 128, 60).
edge(2, 202).
len(2, 202, 53).
edge(2, 10).
len(2, 10, 96).
edge(2, 82).
len(2, 82, 19).
edge(2, 181).
len(2, 181, 25).
edge(2, 65).
len(2, 65, 64).
arc(3, 282).
edge(3, 214).
len(3, 214, 10).
edge(3, 265).
len(3, 265, 62).
arc(116, 3).
edge(3, 128).
len(3, 128, 46).
edge(4, 57).
len(4, 57, 66).
edge(4, 56).
len(4, 56, 57).
edge(4, 258).
len(4, 258, 28).
edge(5, 296).
len(5, 296, 63).
edge(5, 217).
len(5, 217, 79).
edge(5, 58).
len(5, 58, 55).
edge(5, 105).
len(5, 105, 83).
edge(6, 8).
len(6, 8, 55).
edge(6, 144).
len(6, 144, 12).
edge(6, 133).
len(6, 133, 2).
edge(6, 286).
len(6, 286, 2).
edge(6, 241).
len(6, 241, 32).
edge(7, 13).
len(7, 13, 55).
edge(7, 182).
len(7, 182, 50).
edge(7, 273).
len(7, 273, 71).
edge(8, 210).
len(8, 210, 71).
edge(8, 81).
len(8, 81, 65).
edge(9, 222).
len(9, 222, 54).
edge(9, 269).
len(9, 269, 98).
edge(9, 300).
len(9, 300, 50).
edge(9, 225).
len(9, 225, 16).
edge(10, 130).
len(10, 130, 17).
edge(10, 54).
len(10, 54, 26).
edge(11, 119).
len(11, 119, 92).
edge(11, 136).
len(11, 136, 58).
edge(11, 65).
len(11, 65, 12).
edge(11, 234).
len(11, 234, 64).
edge(12, 97).
len(12, 97, 96).
edge(13, 153).
len(13, 153, 96).
edge(13, 182).
len(13, 182, 49).
edge(13, 51).
len(13, 51, 54).
edge(14, 274).
len(14, 274, 99).
edge(14, 44).
len(14, 44, 22).
edge(14, 208).
len(14, 208, 90).
arc(172, 15).
edge(15, 147).
len(15, 147, 21).
edge(16, 119).
len(16, 119, 52).
edge(16, 109).
len(16, 109, 97).
edge(16, 235).
len(16, 235, 36).
edge(16, 58).
len(16, 58, 64).
edge(17, 297).
len(17, 297, 51).
edge(17, 265).
len(17, 265, 13).
edge(18, 289).
len(18, 289, 18).
edge(18, 91).
len(18, 91, 31).
edge(18, 240).
len(18, 240, 67).
edge(19, 271).
len(19, 271, 18).
arc(19, 125).
edge(19, 231).
len(19, 231, 69).
edge(19, 140).
len(19, 140, 2).
edge(20, 169).
len(20, 169, 26).
edge(20, 139).
len(20, 139, 59).
edge(21, 207).
len(21, 207, 22).
edge(21, 65).
len(21, 65, 62).
edge(21, 54).
len(21, 54, 12).
edge(21, 240).
len(21, 240, 25).
edge(21, 181).
len(21, 181, 33).
edge(21, 119).
len(21, 119, 72).
edge(21, 111).
len(21, 111, 46).
edge(22, 109).
len(22, 109, 88).
edge(22, 180).
len(22, 180, 93).
edge(23, 181).
len(23, 181, 9).
edge(23, 61).
len(23, 61, 18).
edge(23, 248).
len(23, 248, 28).
edge(24, 254).
len(24, 254, 7).
edge(24, 241).
len(24, 241, 2).
edge(24, 35).
len(24, 35, 72).
edge(24, 45).
len(24, 45, 64).
edge(24, 83).
len(24, 83, 72).
edge(24, 217).
len(24, 217, 68).
edge(24, 271).
len(24, 271, 44).
edge(25, 177).
len(25, 177, 46).
edge(25, 52).
len(25, 52, 30).
edge(25, 51).
len(25, 51, 6).
edge(25, 146).
len(25, 146, 93).
edge(25, 27).
len(25, 27, 53).
edge(26, 220).
len(26, 220, 47).
edge(26, 99).
len(26, 99, 91).
edge(26, 29).
len(26, 29, 10).
edge(27, 58).
len(27, 58, 66).
edge(27, 110).
len(27, 110, 50).
edge(27, 191).
len(27, 191, 95).
arc(27, 196).
edge(27, 221).
len(27, 221, 81).
edge(28, 125).
len(28, 125, 49).
edge(28, 97).
len(28, 97, 2).
edge(28, 117).
len(28, 117, 90).
edge(28, 187).
len(28, 187, 99).
edge(29, 33).
len(29, 33, 22).
edge(29, 60).
len(29, 60, 53).
edge(29, 297).
len(29, 297, 27).
edge(30, 52).
len(30, 52, 19).
edge(30, 57).
len(30, 57, 65).
edge(30, 209).
len(30, 209, 48).
edge(31, 216).
len(31, 216, 96).
edge(31, 50).
len(31, 50, 75).
edge(32, 133).
len(32, 133, 74).
edge(32, 272).
len(32, 272, 41).
edge(32, 183).
len(32, 183, 35).
edge(32, 121).
len(32, 121, 26).
edge(32, 43).
len(32, 43, 78).
edge(32, 235).
len(32, 235, 15).
edge(33, 179).
len(33, 179, 45).
edge(33, 58).
len(33, 58, 95).
edge(33, 134).
len(33, 134, 76).
edge(33, 151).
len(33, 151, 68).
edge(34, 110).
len(34, 110, 83).
edge(34, 195).
len(34, 195, 22).
edge(34, 140).
len(34, 140, 74).
edge(34, 42).
len(34, 42, 14).
edge(34, 58).
len(34, 58, 1).
edge(35, 144).
len(35, 144, 68).
edge(35, 138).
len(35, 138, 5).
edge(36, 276).
len(36, 276, 41).
edge(36, 233).
len(36, 233, 33).
edge(37, 161).
len(37, 161, 77).
edge(37, 89).
len(37, 89, 24).
edge(37, 267).
len(37, 267, 61).
edge(37, 40).
len(37, 40, 89).
arc(124, 37).
edge(38, 168).
len(38, 168, 98).
arc(60, 38).
edge(38, 112).
len(38, 112, 74).
edge(38, 113).
len(38, 113, 18).
edge(38, 173).
len(38, 173, 89).
edge(39, 279).
len(39, 279, 5).
edge(39, 225).
len(39, 225, 9).
edge(39, 262).
len(39, 262, 97).
edge(40, 198).
len(40, 198, 49).
edge(40, 250).
len(40, 250, 56).
edge(40, 185).
len(40, 185, 56).
edge(41, 185).
len(41, 185, 71).
edge(41, 149).
len(41, 149, 71).
edge(41, 203).
len(41, 203, 58).
edge(42, 252).
len(42, 252, 75).
edge(42, 185).
len(42, 185, 44).
edge(42, 84).
len(42, 84, 69).
edge(42, 107).
len(42, 107, 42).
edge(44, 85).
len(44, 85, 80).
edge(44, 270).
len(44, 270, 26).
edge(44, 253).
len(44, 253, 16).
arc(238, 44).
edge(44, 198).
len(44, 198, 21).
edge(45, 212).
len(45, 212, 86).
arc(45, 283).
edge(45, 211).
len(45, 211, 36).
edge(45, 259).
len(45, 259, 87).
edge(45, 225).
len(45, 225, 18).
edge(46, 196).
len(46, 196, 96).
edge(46, 143).
len(46, 143, 73).
edge(47, 299).
len(47, 299, 43).
edge(48, 251).
len(48, 251, 86).
edge(48, 248).
len(48, 248, 22).
edge(48, 83).
len(48, 83, 50).
edge(48, 270).
len(48, 270, 22).
edge(49, 52).
len(49, 52, 9).
edge(49, 80).
len(49, 80, 33).
edge(49, 207).
len(49, 207, 95).
edge(49, 118).
len(49, 118, 98).
edge(49, 244).
len(49, 244, 27).
edge(51, 282).
len(51, 282, 74).
edge(51, 116).
len(51, 116, 93).
edge(51, 97).
len(51, 97, 41).
edge(51, 198).
len(51, 198, 16).
edge(51, 267).
len(51, 267, 48).
edge(51, 292).
len(51, 292, 68).
edge(51, 164).
len(51, 164, 82).
edge(51, 171).
len(51, 171, 69).
edge(53, 152).
len(53, 152, 58).
edge(53, 226).
len(53, 226, 9).
edge(53, 231).
len(53, 231, 78).
arc(53, 55).
edge(54, 74).
len(54, 74, 51).
edge(55, 219).
len(55, 219, 56).
edge(55, 238).
len(55, 238, 38).
edge(55, 65).
len(55, 65, 27).
edge(55, 296).
len(55, 296, 36).
edge(55, 279).
len(55, 279, 2).
edge(56, 245).
len(56, 245, 26).
edge(57, 271).
len(57, 271, 65).
edge(57, 226).
len(57, 226, 90).
edge(57, 61).
len(57, 61, 10).
edge(57, 229).
len(57, 229, 29).
edge(58, 199).
len(58, 199, 59).
edge(59, 112).
len(59, 112, 58).
edge(59, 243).
len(59, 243, 49).
edge(59, 65).
len(59, 65, 38).
edge(59, 166).
len(59, 166, 19).
edge(60, 102).
len(60, 102, 44).
edge(60, 144).
len(60, 144, 98).
edge(61, 259).
len(61, 259, 99).
edge(61, 152).
len(61, 152, 40).
edge(62, 300).
len(62, 300, 29).
edge(62, 195).
len(62, 195, 61).
edge(62, 275).
len(62, 275, 20).
edge(62, 129).
len(62, 129, 33).
edge(62, 150).
len(62, 150, 10).
edge(62, 200).
len(62, 200, 35).
edge(62, 214).
len(62, 214, 13).
arc(237, 63).
edge(63, 75).
len(63, 75, 12).
edge(64, 116).
len(64, 116, 55).
edge(64, 79).
len(64, 79, 1).
edge(65, 120).
len(65, 120, 45).
edge(66, 126).
len(66, 126, 61).
edge(66, 204).
len(66, 204, 88).
edge(67, 287).
len(67, 287, 29).
arc(296, 67).
edge(67, 278).
len(67, 278, 92).
arc(68, 143).
edge(68, 268).
len(68, 268, 66).
edge(68, 280).
len(68, 280, 9).
edge(68, 72).
len(68, 72, 24).
arc(183, 69).
edge(69, 133).
len(69, 133, 88).
edge(69, 159).
len(69, 159, 35).
edge(70, 185).
len(70, 185, 75).
edge(70, 278).
len(70, 278, 61).
edge(71, 129).
len(71, 129, 61).
edge(71, 213).
len(71, 213, 8).
edge(71, 77).
len(71, 77, 96).
edge(71, 262).
len(71, 262, 67).
edge(72, 179).
len(72, 179, 85).
edge(72, 103).
len(72, 103, 66).
edge(73, 209).
len(73, 209, 95).
edge(73, 188).
len(73, 188, 67).
arc(73, 157).
edge(73, 229).
len(73, 229, 90).
edge(73, 222).
len(73, 222, 37).
edge(74, 152).
len(74, 152, 33).
arc(74, 223).
edge(74, 247).
len(74, 247, 76).
edge(74, 131).
len(74, 131, 70).
arc(75, 187).
edge(75, 176).
len(75, 176, 49).
edge(75, 288).
len(75, 288, 81).
edge(76, 156).
len(76, 156, 29).
edge(76, 251).
len(76, 251, 97).
edge(76, 287).
len(76, 287, 57).
edge(77, 279).
len(77, 279, 92).
edge(77, 177).
len(77, 177, 55).
edge(77, 123).
len(77, 123, 54).
edge(78, 137).
len(78, 137, 92).
edge(78, 143).
len(78, 143, 51).
edge(78, 138).
len(78, 138, 24).
edge(78, 166).
len(78, 166, 92).
edge(79, 151).
len(79, 151, 96).
arc(79, 225).
edge(79, 196).
len(79, 196, 95).
edge(79, 97).
len(79, 97, 53).
edge(80, 253).
len(80, 253, 79).
edge(80, 107).
len(80, 107, 82).
edge(80, 220).
len(80, 220, 81).
edge(81, 262).
len(81, 262, 81).
edge(82, 252).
len(82, 252, 30).
edge(82, 187).
len(82, 187, 48).
edge(82, 191).
len(82, 191, 30).
edge(82, 125).
len(82, 125, 8).
edge(83, 264).
len(83, 264, 4).
arc(83, 265).
edge(83, 252).
len(83, 252, 11).
arc(160, 84).
edge(84, 191).
len(84, 191, 7).
edge(84, 230).
len(84, 230, 4).
edge(85, 125).
len(85, 125, 29).
arc(214, 85).
edge(86, 90).
len(86, 90, 29).
edge(86, 176).
len(86, 176, 7).
edge(86, 278).
len(86, 278, 53).
edge(86, 112).
len(86, 112, 41).
edge(86, 169).
len(86, 169, 68).
edge(87, 276).
len(87, 276, 75).
edge(87, 190).
len(87, 190, 53).
arc(258, 87).
arc(87, 234).
edge(87, 128).
len(87, 128, 100).
edge(87, 268).
len(87, 268, 43).
edge(87, 168).
len(87, 168, 91).
edge(88, 126).
len(88, 126, 60).
edge(88, 92).
len(88, 92, 22).
edge(89, 91).
len(89, 91, 83).
arc(90, 94).
edge(90, 190).
len(90, 190, 30).
edge(90, 258).
len(90, 258, 77).
edge(90, 139).
len(90, 139, 58).
edge(91, 155).
len(91, 155, 50).
edge(91, 148).
len(91, 148, 53).
edge(92, 128).
len(92, 128, 60).
edge(92, 275).
len(92, 275, 71).
edge(92, 146).
len(92, 146, 40).
edge(92, 180).
len(92, 180, 50).
edge(92, 231).
len(92, 231, 5).
edge(93, 275).
len(93, 275, 58).
edge(93, 161).
len(93, 161, 99).
edge(93, 194).
len(93, 194, 34).
edge(93, 151).
len(93, 151, 50).
edge(94, 227).
len(94, 227, 2).
edge(94, 165).
len(94, 165, 32).
edge(94, 233).
len(94, 233, 73).
edge(94, 146).
len(94, 146, 53).
edge(94, 104).
len(94, 104, 65).
edge(95, 97).
len(95, 97, 67).
edge(96, 108).
len(96, 108, 40).
edge(96, 203).
len(96, 203, 18).
edge(96, 277).
len(96, 277, 33).
edge(98, 120).
len(98, 120, 98).
edge(98, 192).
len(98, 192, 80).
edge(98, 260).
len(98, 260, 68).
edge(98, 99).
len(98, 99, 80).
edge(99, 253).
len(99, 253, 1).
arc(99, 211).
edge(99, 111).
len(99, 111, 88).
edge(100, 240).
len(100, 240, 44).
edge(100, 180).
len(100, 180, 45).
edge(100, 214).
len(100, 214, 72).
edge(100, 201).
len(100, 201, 95).
edge(101, 141).
len(101, 141, 55).
edge(101, 251).
len(101, 251, 30).
edge(102, 103).
len(102, 103, 87).
edge(102, 140).
len(102, 140, 54).
edge(102, 202).
len(102, 202, 57).
edge(103, 284).
len(103, 284, 12).
edge(103, 256).
len(103, 256, 80).
edge(104, 157).
len(104, 157, 66).
edge(104, 165).
len(104, 165, 35).
edge(104, 178).
len(104, 178, 43).
edge(104, 226).
len(104, 226, 86).
edge(104, 196).
len(104, 196, 36).
edge(105, 209).
len(105, 209, 40).
arc(106, 295).
edge(107, 161).
len(107, 161, 5).
edge(107, 208).
len(107, 208, 60).
edge(107, 142).
len(107, 142, 62).
edge(108, 299).
len(108, 299, 40).
edge(109, 243).
len(109, 243, 68).
edge(110, 111).
len(110, 111, 56).
edge(111, 267).
len(111, 267, 87).
edge(111, 149).
len(111, 149, 4).
edge(111, 298).
len(111, 298, 17).
edge(111, 254).
len(111, 254, 27).
edge(112, 143).
len(112, 143, 77).
edge(112, 276).
len(112, 276, 37).
edge(112, 271).
len(112, 271, 87).
edge(112, 226).
len(112, 226, 39).
edge(113, 267).
len(113, 267, 15).
edge(113, 276).
len(113, 276, 14).
edge(113, 189).
len(113, 189, 31).
edge(114, 257).
len(114, 257, 82).
arc(256, 115).
edge(115, 230).
len(115, 230, 91).
edge(116, 219).
len(116, 219, 69).
edge(116, 291).
len(116, 291, 74).
edge(117, 271).
len(117, 271, 36).
edge(117, 229).
len(117, 229, 83).
edge(117, 272).
len(117, 272, 2).
edge(117, 124).
len(117, 124, 37).
arc(147, 117).
arc(151, 118).
edge(118, 173).
len(118, 173, 33).
edge(119, 174).
len(119, 174, 49).
edge(119, 175).
len(119, 175, 94).
edge(119, 199).
len(119, 199, 56).
arc(119, 163).
edge(120, 249).
len(120, 249, 99).
edge(120, 186).
len(120, 186, 98).
edge(121, 142).
len(121, 142, 83).
edge(121, 169).
len(121, 169, 57).
edge(121, 288).
len(121, 288, 31).
arc(207, 122).
arc(123, 178).
edge(123, 264).
len(123, 264, 98).
edge(123, 154).
len(123, 154, 73).
edge(124, 141).
len(124, 141, 62).
arc(217, 124).
edge(124, 221).
len(124, 221, 62).
edge(125, 264).
len(125, 264, 2).
arc(176, 126).
edge(126, 224).
len(126, 224, 58).
arc(127, 148).
edge(127, 248).
len(127, 248, 1).
edge(127, 172).
len(127, 172, 71).
edge(127, 223).
len(127, 223, 81).
edge(128, 255).
len(128, 255, 39).
edge(128, 220).
len(128, 220, 15).
edge(129, 259).
len(129, 259, 24).
edge(129, 149).
len(129, 149, 66).
edge(129, 170).
len(129, 170, 38).
arc(196, 129).
edge(129, 201).
len(129, 201, 66).
edge(130, 218).
len(130, 218, 97).
edge(130, 152).
len(130, 152, 39).
edge(131, 300).
len(131, 300, 11).
edge(131, 213).
len(131, 213, 33).
edge(132, 229).
len(132, 229, 85).
edge(132, 212).
len(132, 212, 28).
edge(133, 179).
len(133, 179, 34).
edge(133, 159).
len(133, 159, 100).
edge(134, 189).
len(134, 189, 2).
edge(134, 283).
len(134, 283, 66).
edge(134, 296).
len(134, 296, 68).
edge(135, 181).
len(135, 181, 69).
edge(136, 213).
len(136, 213, 63).
edge(136, 228).
len(136, 228, 41).
arc(259, 136).
edge(137, 261).
len(137, 261, 12).
edge(137, 221).
len(137, 221, 86).
edge(138, 242).
len(138, 242, 81).
edge(138, 165).
len(138, 165, 53).
edge(138, 233).
len(138, 233, 29).
edge(139, 190).
len(139, 190, 73).
edge(139, 274).
len(139, 274, 97).
edge(139, 247).
len(139, 247, 45).
edge(139, 240).
len(139, 240, 23).
edge(140, 172).
len(140, 172, 63).
edge(140, 260).
len(140, 260, 2).
edge(141, 260).
len(141, 260, 91).
arc(141, 270).
edge(141, 235).
len(141, 235, 26).
edge(142, 233).
len(142, 233, 88).
edge(142, 287).
len(142, 287, 36).
edge(142, 143).
len(142, 143, 84).
edge(142, 145).
len(142, 145, 93).
edge(142, 226).
len(142, 226, 43).
arc(143, 177).
edge(143, 257).
len(143, 257, 16).
edge(144, 225).
len(144, 225, 4).
edge(145, 204).
len(145, 204, 22).
edge(145, 216).
len(145, 216, 82).
edge(145, 293).
len(145, 293, 32).
edge(145, 229).
len(145, 229, 30).
edge(145, 211).
len(145, 211, 5).
edge(145, 172).
len(145, 172, 74).
edge(146, 226).
len(146, 226, 73).
edge(146, 218).
len(146, 218, 97).
edge(146, 249).
len(146, 249, 16).
edge(147, 165).
len(147, 165, 23).
edge(148, 178).
len(148, 178, 22).
edge(148, 222).
len(148, 222, 4).
edge(148, 190).
len(148, 190, 85).
edge(148, 254).
len(148, 254, 20).
edge(151, 197).
len(151, 197, 18).
edge(151, 213).
len(151, 213, 82).
edge(153, 268).
len(153, 268, 85).
edge(153, 192).
len(153, 192, 4).
edge(155, 182).
len(155, 182, 10).
edge(156, 263).
len(156, 263, 72).
edge(156, 200).
len(156, 200, 66).
edge(156, 251).
len(156, 251, 31).
arc(157, 230).
edge(158, 176).
len(158, 176, 30).
edge(159, 274).
len(159, 274, 87).
edge(159, 247).
len(159, 247, 40).
edge(159, 215).
len(159, 215, 30).
edge(160, 263).
len(160, 263, 71).
edge(160, 238).
len(160, 238, 40).
edge(160, 185).
len(160, 185, 22).
edge(161, 243).
len(161, 243, 15).
edge(161, 256).
len(161, 256, 59).
edge(162, 287).
len(162, 287, 87).
edge(162, 193).
len(162, 193, 84).
edge(162, 239).
len(162, 239, 88).
edge(163, 197).
len(163, 197, 59).
edge(163, 296).
len(163, 296, 82).
edge(164, 268).
len(164, 268, 31).
edge(164, 229).
len(164, 229, 42).
edge(164, 247).
len(164, 247, 31).
edge(165, 272).
len(165, 272, 16).
edge(165, 238).
len(165, 238, 27).
edge(166, 280).
len(166, 280, 35).
edge(166, 288).
len(166, 288, 30).
edge(166, 281).
len(166, 281, 44).
edge(166, 252).
len(166, 252, 91).
edge(166, 299).
len(166, 299, 25).
edge(166, 201).
len(166, 201, 80).
arc(167, 263).
edge(167, 236).
len(167, 236, 7).
edge(167, 245).
len(167, 245, 52).
edge(167, 262).
len(167, 262, 41).
edge(168, 177).
len(168, 177, 85).
edge(168, 217).
len(168, 217, 24).
edge(168, 175).
len(168, 175, 85).
edge(169, 249).
len(169, 249, 39).
edge(170, 265).
len(170, 265, 32).
edge(171, 207).
len(171, 207, 85).
edge(171, 287).
len(171, 287, 66).
edge(172, 255).
len(172, 255, 100).
edge(172, 227).
len(172, 227, 4).
edge(172, 177).
len(172, 177, 30).
edge(173, 210).
len(173, 210, 26).
edge(174, 213).
len(174, 213, 79).
edge(174, 196).
len(174, 196, 48).
edge(175, 204).
len(175, 204, 51).
edge(175, 243).
len(175, 243, 34).
edge(176, 292).
len(176, 292, 34).
edge(177, 251).
len(177, 251, 12).
arc(177, 244).
edge(177, 259).
len(177, 259, 96).
edge(179, 210).
len(179, 210, 32).
edge(180, 266).
len(180, 266, 32).
edge(180, 208).
len(180, 208, 38).
edge(180, 280).
len(180, 280, 94).
edge(181, 210).
len(181, 210, 54).
edge(181, 239).
len(181, 239, 84).
edge(182, 238).
len(182, 238, 42).
edge(182, 196).
len(182, 196, 21).
edge(183, 189).
len(183, 189, 55).
edge(184, 259).
len(184, 259, 76).
edge(184, 297).
len(184, 297, 3).
edge(186, 290).
len(186, 290, 48).
edge(186, 215).
len(186, 215, 13).
edge(186, 210).
len(186, 210, 76).
edge(187, 280).
len(187, 280, 13).
edge(188, 227).
len(188, 227, 35).
edge(188, 201).
len(188, 201, 28).
edge(188, 232).
len(188, 232, 90).
edge(189, 224).
len(189, 224, 42).
edge(189, 297).
len(189, 297, 69).
edge(189, 241).
len(189, 241, 82).
edge(189, 225).
len(189, 225, 58).
edge(189, 300).
len(189, 300, 58).
edge(190, 278).
len(190, 278, 44).
edge(193, 281).
len(193, 281, 18).
edge(193, 295).
len(193, 295, 18).
edge(194, 262).
len(194, 262, 65).
edge(194, 210).
len(194, 210, 36).
edge(195, 247).
len(195, 247, 38).
edge(195, 251).
len(195, 251, 88).
edge(196, 285).
len(196, 285, 12).
arc(197, 253).
edge(198, 202).
len(198, 202, 5).
edge(198, 215).
len(198, 215, 48).
edge(199, 250).
len(199, 250, 30).
edge(199, 295).
len(199, 295, 78).
edge(199, 219).
len(199, 219, 57).
arc(290, 200).
edge(200, 276).
len(200, 276, 38).
edge(200, 266).
len(200, 266, 90).
edge(203, 232).
len(203, 232, 4).
edge(203, 233).
len(203, 233, 13).
arc(298, 205).
edge(206, 243).
len(206, 243, 83).
edge(207, 285).
len(207, 285, 1).
edge(207, 294).
len(207, 294, 3).
edge(207, 231).
len(207, 231, 96).
edge(208, 249).
len(208, 249, 96).
edge(208, 290).
len(208, 290, 25).
edge(209, 270).
len(209, 270, 10).
edge(210, 215).
len(210, 215, 12).
edge(210, 260).
len(210, 260, 57).
edge(211, 230).
len(211, 230, 40).
arc(211, 290).
edge(211, 260).
len(211, 260, 61).
edge(213, 299).
len(213, 299, 1).
edge(214, 226).
len(214, 226, 6).
edge(214, 290).
len(214, 290, 35).
edge(216, 269).
len(216, 269, 35).
edge(216, 242).
len(216, 242, 54).
edge(217, 242).
len(217, 242, 3).
edge(217, 269).
len(217, 269, 94).
edge(219, 262).
len(219, 262, 69).
edge(219, 252).
len(219, 252, 25).
edge(220, 258).
len(220, 258, 11).
edge(220, 246).
len(220, 246, 26).
edge(221, 273).
len(221, 273, 7).
edge(224, 238).
len(224, 238, 62).
arc(266, 224).
edge(225, 298).
len(225, 298, 53).
edge(226, 228).
len(226, 228, 76).
edge(227, 260).
len(227, 260, 17).
edge(229, 233).
len(229, 233, 15).
edge(229, 261).
len(229, 261, 28).
edge(230, 288).
len(230, 288, 69).
edge(231, 258).
len(231, 258, 50).
edge(233, 250).
len(233, 250, 12).
edge(235, 276).
len(235, 276, 83).
edge(236, 278).
len(236, 278, 69).
edge(237, 238).
len(237, 238, 76).
edge(238, 244).
len(238, 244, 76).
edge(239, 241).
len(239, 241, 30).
edge(242, 266).
len(242, 266, 50).
arc(244, 275).
edge(244, 279).
len(244, 279, 55).
edge(245, 294).
len(245, 294, 33).
arc(246, 271).
edge(248, 298).
len(248, 298, 56).
edge(249, 271).
len(249, 271, 72).
edge(251, 270).
len(251, 270, 77).
edge(251, 279).
len(251, 279, 14).
edge(254, 280).
len(254, 280, 80).
edge(256, 260).
len(256, 260, 31).
edge(258, 264).
len(258, 264, 89).
edge(262, 295).
len(262, 295, 71).
arc(288, 266).
edge(268, 285).
len(268, 285, 54).
edge(272, 292).
len(272, 292, 48).
edge(272, 299).
len(272, 299, 24).
edge(276, 292).
len(276, 292, 87).
edge(276, 295).
len(276, 295, 89).
edge(277, 299).
len(277, 299, 27).
edge(278, 297).
len(278, 297, 25).
edge(278, 289).
len(278, 289, 73).
edge(290, 294).
len(290, 294, 3).
edge(291, 297).
len(291, 297, 21).
edge(292, 295).
len(292, 295, 91).
edge(296, 300).
len(296, 300, 15).
