vtx(1..455).
edge(1, 96).
len(1, 96, 89).
edge(1, 327).
len(1, 327, 67).
edge(1, 42).
len(1, 42, 71).
edge(1, 247).
len(1, 247, 74).
edge(1, 410).
len(1, 410, 41).
edge(2, 341).
len(2, 341, 89).
arc(372, 2).
edge(2, 6).
len(2, 6, 14).
edge(2, 155).
len(2, 155, 100).
edge(2, 109).
len(2, 109, 5).
edge(3, 82).
len(3, 82, 53).
edge(3, 21).
len(3, 21, 30).
edge(3, 225).
len(3, 225, 82).
edge(4, 312).
len(4, 312, 13).
edge(4, 170).
len(4, 170, 2).
edge(4, 165).
len(4, 165, 47).
edge(5, 102).
len(5, 102, 91).
edge(5, 395).
len(5, 395, 74).
edge(5, 203).
len(5, 203, 55).
edge(5, 105).
len(5, 105, 30).
edge(5, 72).
len(5, 72, 32).
edge(5, 205).
len(5, 205, 80).
edge(5, 40).
len(5, 40, 86).
edge(6, 61).
len(6, 61, 12).
edge(6, 91).
len(6, 91, 69).
arc(187, 6).
edge(6, 342).
len(6, 342, 40).
edge(7, 283).
len(7, 283, 77).
edge(7, 448).
len(7, 448, 45).
edge(7, 440).
len(7, 440, 54).
edge(7, 246).
len(7, 246, 85).
edge(7, 22).
len(7, 22, 43).
edge(7, 181).
len(7, 181, 57).
edge(7, 225).
len(7, 225, 49).
edge(8, 421).
len(8, 421, 33).
edge(8, 34).
len(8, 34, 33).
edge(8, 108).
len(8, 108, 85).
edge(9, 370).
len(9, 370, 17).
edge(9, 243).
len(9, 243, 75).
edge(9, 294).
len(9, 294, 57).
edge(10, 239).
len(10, 239, 82).
edge(10, 159).
len(10, 159, 78).
edge(10, 132).
len(10, 132, 79).
edge(10, 428).
len(10, 428, 17).
edge(10, 388).
len(10, 388, 61).
edge(11, 248).
len(11, 248, 83).
edge(11, 44).
len(11, 44, 74).
edge(11, 365).
len(11, 365, 75).
edge(11, 341).
len(11, 341, 34).
edge(12, 53).
len(12, 53, 4).
edge(12, 426).
len(12, 426, 60).
edge(12, 200).
len(12, 200, 18).
edge(12, 125).
len(12, 125, 79).
edge(13, 71).
len(13, 71, 21).
edge(13, 150).
len(13, 150, 52).
edge(13, 382).
len(13, 382, 82).
edge(13, 35).
len(13, 35, 99).
edge(13, 103).
len(13, 103, 16).
edge(13, 250).
len(13, 250, 86).
edge(14, 422).
len(14, 422, 15).
edge(14, 367).
len(14, 367, 95).
edge(14, 383).
len(14, 383, 37).
edge(14, 381).
len(14, 381, 79).
edge(15, 64).
len(15, 64, 39).
edge(15, 429).
len(15, 429, 77).
edge(15, 143).
len(15, 143, 64).
edge(15, 198).
len(15, 198, 69).
edge(15, 86).
len(15, 86, 45).
edge(16, 403).
len(16, 403, 56).
edge(16, 64).
len(16, 64, 9).
edge(16, 210).
len(16, 210, 67).
edge(17, 396).
len(17, 396, 34).
edge(17, 372).
len(17, 372, 64).
edge(17, 270).
len(17, 270, 81).
edge(17, 287).
len(17, 287, 82).
edge(18, 74).
len(18, 74, 21).
edge(18, 19).
len(18, 19, 56).
edge(18, 397).
len(18, 397, 46).
edge(18, 141).
len(18, 141, 51).
edge(18, 419).
len(18, 419, 18).
edge(19, 436).
len(19, 436, 46).
edge(20, 189).
len(20, 189, 14).
edge(20, 211).
len(20, 211, 54).
edge(20, 438).
len(20, 438, 96).
edge(20, 237).
len(20, 237, 18).
edge(20, 174).
len(20, 174, 31).
edge(20, 267).
len(20, 267, 1).
edge(20, 94).
len(20, 94, 46).
edge(21, 48).
len(21, 48, 3).
edge(21, 228).
len(21, 228, 7).
edge(21, 286).
len(21, 286, 33).
edge(21, 397).
len(21, 397, 93).
edge(22, 114).
len(22, 114, 85).
edge(22, 209).
len(22, 209, 29).
edge(22, 157).
len(22, 157, 51).
edge(22, 374).
len(22, 374, 81).
edge(22, 294).
len(22, 294, 52).
edge(23, 234).
len(23, 234, 74).
edge(23, 325).
len(23, 325, 78).
edge(23, 181).
len(23, 181, 40).
edge(23, 77).
len(23, 77, 76).
edge(24, 91).
len(24, 91, 60).
edge(24, 70).
len(24, 70, 19).
edge(24, 136).
len(24, 136, 14).
edge(24, 55).
len(24, 55, 67).
edge(24, 48).
len(24, 48, 2).
edge(25, 430).
len(25, 430, 12).
edge(25, 80).
len(25, 80, 75).
edge(25, 230).
len(25, 230, 88).
edge(26, 206).
len(26, 206, 80).
arc(120, 26).
edge(26, 392).
len(26, 392, 43).
edge(26, 386).
len(26, 386, 12).
edge(27, 160).
len(27, 160, 82).
edge(27, 274).
len(27, 274, 76).
edge(27, 165).
len(27, 165, 54).
edge(27, 273).
len(27, 273, 95).
arc(355, 27).
edge(27, 317).
len(27, 317, 34).
edge(27, 416).
len(27, 416, 34).
edge(28, 84).
len(28, 84, 6).
edge(28, 405).
len(28, 405, 81).
edge(28, 45).
len(28, 45, 40).
edge(29, 452).
len(29, 452, 8).
edge(29, 337).
len(29, 337, 34).
edge(29, 346).
len(29, 346, 4).
edge(29, 209).
len(29, 209, 38).
edge(29, 455).
len(29, 455, 76).
edge(29, 428).
len(29, 428, 41).
edge(30, 447).
len(30, 447, 73).
edge(30, 279).
len(30, 279, 43).
edge(31, 239).
len(31, 239, 68).
arc(31, 403).
edge(31, 226).
len(31, 226, 53).
edge(31, 454).
len(31, 454, 7).
edge(32, 186).
len(32, 186, 19).
edge(32, 256).
len(32, 256, 54).
edge(33, 424).
len(33, 424, 45).
edge(33, 161).
len(33, 161, 39).
edge(33, 417).
len(33, 417, 5).
edge(34, 63).
len(34, 63, 47).
edge(34, 414).
len(34, 414, 17).
edge(35, 355).
len(35, 355, 49).
edge(35, 382).
len(35, 382, 76).
edge(35, 56).
len(35, 56, 29).
edge(36, 84).
len(36, 84, 86).
edge(36, 416).
len(36, 416, 82).
edge(36, 152).
len(36, 152, 93).
edge(36, 85).
len(36, 85, 87).
edge(36, 393).
len(36, 393, 84).
edge(37, 56).
len(37, 56, 99).
edge(37, 391).
len(37, 391, 8).
edge(37, 392).
len(37, 392, 7).
edge(37, 59).
len(37, 59, 68).
edge(37, 432).
len(37, 432, 92).
edge(37, 327).
len(37, 327, 7).
edge(38, 201).
len(38, 201, 71).
edge(38, 371).
len(38, 371, 3).
edge(39, 105).
len(39, 105, 56).
edge(39, 346).
len(39, 346, 23).
edge(39, 405).
len(39, 405, 4).
edge(39, 408).
len(39, 408, 20).
edge(39, 40).
len(39, 40, 87).
edge(39, 340).
len(39, 340, 86).
edge(39, 64).
len(39, 64, 91).
edge(39, 275).
len(39, 275, 72).
edge(39, 369).
len(39, 369, 21).
arc(40, 446).
edge(40, 60).
len(40, 60, 63).
edge(41, 70).
len(41, 70, 41).
edge(41, 51).
len(41, 51, 8).
edge(41, 253).
len(41, 253, 42).
edge(43, 414).
len(43, 414, 23).
edge(43, 45).
len(43, 45, 79).
edge(43, 374).
len(43, 374, 35).
edge(44, 440).
len(44, 440, 3).
edge(46, 147).
len(46, 147, 97).
edge(46, 176).
len(46, 176, 81).
edge(46, 435).
len(46, 435, 80).
edge(46, 265).
len(46, 265, 80).
edge(46, 60).
len(46, 60, 34).
edge(47, 190).
len(47, 190, 14).
edge(47, 387).
len(47, 387, 11).
edge(47, 140).
len(47, 140, 97).
edge(47, 166).
len(47, 166, 4).
edge(48, 202).
len(48, 202, 96).
edge(48, 176).
len(48, 176, 42).
edge(48, 101).
len(48, 101, 8).
edge(48, 194).
len(48, 194, 12).
edge(48, 220).
len(48, 220, 14).
edge(48, 432).
len(48, 432, 37).
edge(48, 158).
len(48, 158, 97).
arc(49, 347).
edge(49, 412).
len(49, 412, 30).
edge(49, 190).
len(49, 190, 91).
edge(49, 403).
len(49, 403, 45).
edge(49, 257).
len(49, 257, 36).
edge(49, 440).
len(49, 440, 3).
edge(50, 399).
len(50, 399, 98).
edge(50, 118).
len(50, 118, 9).
edge(50, 92).
len(50, 92, 11).
edge(50, 67).
len(50, 67, 89).
edge(50, 142).
len(50, 142, 26).
edge(50, 112).
len(50, 112, 98).
edge(51, 177).
len(51, 177, 94).
edge(51, 57).
len(51, 57, 50).
edge(51, 53).
len(51, 53, 22).
edge(51, 393).
len(51, 393, 72).
edge(51, 442).
len(51, 442, 68).
edge(52, 303).
len(52, 303, 55).
edge(52, 273).
len(52, 273, 23).
edge(52, 323).
len(52, 323, 16).
edge(52, 224).
len(52, 224, 50).
edge(52, 341).
len(52, 341, 93).
edge(52, 362).
len(52, 362, 97).
edge(53, 379).
len(53, 379, 27).
edge(53, 266).
len(53, 266, 83).
edge(53, 167).
len(53, 167, 60).
arc(53, 219).
edge(53, 141).
len(53, 141, 10).
edge(54, 407).
len(54, 407, 53).
edge(54, 388).
len(54, 388, 54).
edge(54, 128).
len(54, 128, 99).
edge(55, 89).
len(55, 89, 81).
edge(55, 223).
len(55, 223, 85).
edge(56, 222).
len(56, 222, 39).
edge(56, 219).
len(56, 219, 20).
edge(57, 445).
len(57, 445, 16).
edge(57, 199).
len(57, 199, 93).
edge(57, 210).
len(57, 210, 86).
edge(57, 253).
len(57, 253, 15).
edge(57, 145).
len(57, 145, 84).
edge(57, 276).
len(57, 276, 25).
edge(58, 138).
len(58, 138, 85).
edge(58, 228).
len(58, 228, 56).
edge(58, 403).
len(58, 403, 32).
edge(59, 363).
len(59, 363, 34).
edge(59, 204).
len(59, 204, 17).
edge(59, 297).
len(59, 297, 91).
edge(60, 311).
len(60, 311, 58).
edge(61, 328).
len(61, 328, 74).
edge(61, 71).
len(61, 71, 67).
edge(61, 86).
len(61, 86, 100).
edge(62, 306).
len(62, 306, 94).
edge(63, 76).
len(63, 76, 58).
edge(63, 163).
len(63, 163, 53).
edge(63, 252).
len(63, 252, 10).
edge(64, 215).
len(64, 215, 22).
edge(64, 362).
len(64, 362, 9).
edge(65, 187).
len(65, 187, 34).
edge(65, 208).
len(65, 208, 68).
edge(65, 251).
len(65, 251, 7).
edge(65, 118).
len(65, 118, 23).
edge(66, 81).
len(66, 81, 38).
edge(66, 263).
len(66, 263, 20).
edge(66, 80).
len(66, 80, 14).
edge(67, 191).
len(67, 191, 74).
edge(67, 278).
len(67, 278, 65).
edge(67, 375).
len(67, 375, 8).
edge(68, 325).
len(68, 325, 84).
arc(68, 350).
edge(68, 389).
len(68, 389, 4).
edge(68, 358).
len(68, 358, 59).
edge(69, 199).
len(69, 199, 4).
edge(69, 389).
len(69, 389, 1).
edge(69, 71).
len(69, 71, 40).
edge(69, 392).
len(69, 392, 14).
edge(69, 153).
len(69, 153, 85).
edge(69, 450).
len(69, 450, 63).
edge(70, 150).
len(70, 150, 40).
edge(70, 275).
len(70, 275, 19).
edge(70, 130).
len(70, 130, 16).
arc(70, 151).
edge(71, 364).
len(71, 364, 33).
edge(71, 295).
len(71, 295, 89).
edge(71, 410).
len(71, 410, 77).
edge(71, 265).
len(71, 265, 74).
edge(72, 253).
len(72, 253, 13).
edge(72, 173).
len(72, 173, 12).
edge(72, 310).
len(72, 310, 57).
edge(72, 393).
len(72, 393, 24).
edge(72, 304).
len(72, 304, 15).
edge(72, 448).
len(72, 448, 3).
edge(73, 308).
len(73, 308, 43).
edge(74, 446).
len(74, 446, 45).
edge(74, 425).
len(74, 425, 19).
edge(74, 305).
len(74, 305, 14).
edge(74, 151).
len(74, 151, 5).
edge(75, 423).
len(75, 423, 30).
edge(75, 257).
len(75, 257, 6).
edge(75, 229).
len(75, 229, 9).
edge(75, 223).
len(75, 223, 35).
edge(75, 429).
len(75, 429, 7).
edge(75, 210).
len(75, 210, 68).
edge(75, 134).
len(75, 134, 100).
edge(76, 108).
len(76, 108, 16).
edge(76, 153).
len(76, 153, 53).
edge(77, 123).
len(77, 123, 86).
edge(77, 410).
len(77, 410, 65).
edge(77, 81).
len(77, 81, 80).
arc(78, 345).
edge(78, 383).
len(78, 383, 80).
edge(78, 204).
len(78, 204, 97).
edge(78, 371).
len(78, 371, 3).
edge(78, 346).
len(78, 346, 13).
edge(79, 422).
len(79, 422, 64).
edge(79, 88).
len(79, 88, 81).
edge(79, 318).
len(79, 318, 16).
edge(80, 361).
len(80, 361, 32).
edge(81, 163).
len(81, 163, 73).
edge(81, 206).
len(81, 206, 84).
edge(81, 237).
len(81, 237, 30).
edge(81, 388).
len(81, 388, 52).
edge(81, 83).
len(81, 83, 19).
edge(82, 336).
len(82, 336, 14).
edge(82, 343).
len(82, 343, 19).
edge(83, 455).
len(83, 455, 26).
edge(83, 170).
len(83, 170, 70).
edge(83, 440).
len(83, 440, 10).
edge(83, 147).
len(83, 147, 24).
edge(83, 180).
len(83, 180, 99).
edge(84, 418).
len(84, 418, 91).
edge(85, 187).
len(85, 187, 7).
edge(86, 394).
len(86, 394, 84).
edge(86, 399).
len(86, 399, 11).
edge(86, 145).
len(86, 145, 68).
edge(86, 416).
len(86, 416, 21).
edge(87, 297).
len(87, 297, 10).
edge(88, 337).
len(88, 337, 9).
edge(88, 191).
len(88, 191, 15).
edge(88, 132).
len(88, 132, 70).
edge(89, 342).
len(89, 342, 100).
edge(89, 100).
len(89, 100, 36).
edge(89, 95).
len(89, 95, 50).
edge(89, 179).
len(89, 179, 76).
edge(90, 127).
len(90, 127, 25).
edge(90, 167).
len(90, 167, 95).
edge(91, 453).
len(91, 453, 85).
edge(91, 103).
len(91, 103, 70).
edge(92, 176).
len(92, 176, 24).
edge(92, 382).
len(92, 382, 98).
edge(92, 366).
len(92, 366, 19).
edge(92, 185).
len(92, 185, 80).
edge(93, 180).
len(93, 180, 29).
edge(93, 447).
len(93, 447, 65).
edge(93, 418).
len(93, 418, 93).
edge(93, 162).
len(93, 162, 23).
edge(94, 173).
len(94, 173, 12).
edge(94, 424).
len(94, 424, 24).
edge(95, 134).
len(95, 134, 3).
edge(95, 313).
len(95, 313, 53).
edge(96, 356).
len(96, 356, 7).
edge(96, 364).
len(96, 364, 36).
arc(96, 365).
edge(96, 375).
len(96, 375, 8).
edge(96, 278).
len(96, 278, 57).
edge(97, 156).
len(97, 156, 31).
edge(98, 430).
len(98, 430, 40).
edge(98, 226).
len(98, 226, 14).
edge(98, 261).
len(98, 261, 87).
edge(98, 308).
len(98, 308, 86).
edge(98, 254).
len(98, 254, 88).
edge(98, 366).
len(98, 366, 39).
edge(98, 183).
len(98, 183, 60).
edge(99, 326).
len(99, 326, 4).
edge(100, 190).
len(100, 190, 57).
edge(100, 122).
len(100, 122, 51).
edge(101, 115).
len(101, 115, 63).
edge(101, 177).
len(101, 177, 85).
edge(101, 129).
len(101, 129, 59).
edge(102, 154).
len(102, 154, 78).
edge(102, 143).
len(102, 143, 23).
edge(102, 153).
len(102, 153, 4).
edge(104, 455).
len(104, 455, 95).
edge(104, 442).
len(104, 442, 77).
edge(104, 262).
len(104, 262, 47).
edge(104, 387).
len(104, 387, 22).
edge(104, 140).
len(104, 140, 63).
edge(104, 330).
len(104, 330, 65).
edge(105, 419).
len(105, 419, 24).
edge(106, 378).
len(106, 378, 59).
edge(106, 209).
len(106, 209, 95).
edge(106, 283).
len(106, 283, 13).
edge(107, 121).
len(107, 121, 28).
edge(107, 314).
len(107, 314, 77).
edge(108, 312).
len(108, 312, 70).
edge(108, 275).
len(108, 275, 30).
edge(109, 194).
len(109, 194, 98).
edge(109, 330).
len(109, 330, 32).
edge(110, 124).
len(110, 124, 45).
edge(110, 299).
len(110, 299, 41).
edge(110, 348).
len(110, 348, 38).
edge(110, 153).
len(110, 153, 21).
edge(111, 255).
len(111, 255, 97).
edge(111, 297).
len(111, 297, 19).
edge(111, 164).
len(111, 164, 92).
edge(111, 209).
len(111, 209, 72).
edge(111, 376).
len(111, 376, 95).
edge(112, 333).
len(112, 333, 30).
edge(112, 154).
len(112, 154, 13).
edge(112, 265).
len(112, 265, 28).
edge(112, 143).
len(112, 143, 94).
edge(112, 353).
len(112, 353, 63).
edge(113, 192).
len(113, 192, 22).
edge(113, 246).
len(113, 246, 7).
edge(113, 368).
len(113, 368, 28).
edge(113, 188).
len(113, 188, 42).
edge(113, 193).
len(113, 193, 37).
edge(114, 305).
len(114, 305, 23).
edge(114, 345).
len(114, 345, 33).
edge(114, 328).
len(114, 328, 26).
edge(114, 363).
len(114, 363, 53).
edge(115, 130).
len(115, 130, 54).
edge(115, 346).
len(115, 346, 22).
edge(116, 448).
len(116, 448, 63).
edge(116, 181).
len(116, 181, 88).
edge(117, 191).
len(117, 191, 50).
edge(117, 230).
len(117, 230, 59).
edge(117, 450).
len(117, 450, 64).
edge(117, 295).
len(117, 295, 37).
edge(118, 391).
len(118, 391, 35).
edge(118, 125).
len(118, 125, 22).
edge(119, 244).
len(119, 244, 51).
edge(120, 300).
len(120, 300, 74).
edge(121, 423).
len(121, 423, 24).
edge(121, 197).
len(121, 197, 30).
edge(122, 245).
len(122, 245, 4).
edge(122, 449).
len(122, 449, 34).
edge(123, 247).
len(123, 247, 90).
edge(123, 255).
len(123, 255, 90).
edge(124, 203).
len(124, 203, 15).
edge(125, 453).
len(125, 453, 94).
edge(125, 327).
len(125, 327, 71).
edge(125, 378).
len(125, 378, 90).
edge(125, 346).
len(125, 346, 7).
edge(126, 147).
len(126, 147, 90).
edge(126, 446).
len(126, 446, 59).
arc(229, 126).
edge(126, 392).
len(126, 392, 28).
edge(127, 312).
len(127, 312, 96).
edge(127, 195).
len(127, 195, 83).
edge(127, 364).
len(127, 364, 45).
edge(127, 421).
len(127, 421, 86).
arc(128, 259).
edge(128, 192).
len(128, 192, 2).
edge(129, 336).
len(129, 336, 37).
edge(130, 240).
len(130, 240, 81).
edge(131, 227).
len(131, 227, 68).
edge(131, 235).
len(131, 235, 26).
edge(131, 253).
len(131, 253, 65).
edge(132, 425).
len(132, 425, 2).
edge(132, 214).
len(132, 214, 3).
edge(132, 430).
len(132, 430, 87).
edge(132, 289).
len(132, 289, 100).
edge(132, 292).
len(132, 292, 15).
edge(132, 405).
len(132, 405, 11).
edge(133, 385).
len(133, 385, 9).
edge(133, 372).
len(133, 372, 4).
edge(133, 206).
len(133, 206, 34).
edge(134, 409).
len(134, 409, 37).
edge(134, 295).
len(134, 295, 48).
edge(134, 277).
len(134, 277, 48).
edge(135, 199).
len(135, 199, 49).
edge(135, 313).
len(135, 313, 50).
arc(135, 379).
edge(136, 381).
len(136, 381, 99).
edge(137, 144).
len(137, 144, 72).
edge(138, 309).
len(138, 309, 47).
edge(139, 223).
len(139, 223, 86).
edge(139, 428).
len(139, 428, 41).
edge(140, 310).
len(140, 310, 75).
edge(140, 292).
len(140, 292, 97).
arc(364, 141).
edge(141, 396).
len(141, 396, 6).
edge(141, 286).
len(141, 286, 31).
edge(141, 314).
len(141, 314, 88).
edge(141, 422).
len(141, 422, 50).
edge(142, 326).
len(142, 326, 3).
edge(143, 338).
len(143, 338, 83).
edge(143, 385).
len(143, 385, 12).
edge(143, 282).
len(143, 282, 51).
edge(143, 172).
len(143, 172, 72).
edge(143, 161).
len(143, 161, 6).
arc(349, 144).
edge(144, 281).
len(144, 281, 39).
edge(144, 263).
len(144, 263, 64).
edge(145, 244).
len(145, 244, 2).
edge(145, 186).
len(145, 186, 29).
edge(145, 152).
len(145, 152, 16).
edge(146, 196).
len(146, 196, 81).
arc(146, 179).
edge(147, 358).
len(147, 358, 99).
edge(148, 314).
len(148, 314, 25).
edge(149, 155).
len(149, 155, 88).
edge(150, 434).
len(150, 434, 24).
edge(150, 290).
len(150, 290, 45).
edge(150, 262).
len(150, 262, 64).
edge(151, 201).
len(151, 201, 45).
edge(151, 381).
len(151, 381, 77).
edge(151, 359).
len(151, 359, 31).
edge(151, 434).
len(151, 434, 65).
edge(152, 240).
len(152, 240, 88).
edge(152, 336).
len(152, 336, 25).
edge(152, 212).
len(152, 212, 20).
edge(152, 328).
len(152, 328, 26).
edge(152, 438).
len(152, 438, 67).
edge(153, 344).
len(153, 344, 58).
edge(153, 314).
len(153, 314, 94).
edge(154, 380).
len(154, 380, 52).
edge(154, 298).
len(154, 298, 14).
edge(154, 220).
len(154, 220, 4).
edge(154, 358).
len(154, 358, 40).
edge(155, 305).
len(155, 305, 84).
edge(156, 211).
len(156, 211, 96).
edge(156, 385).
len(156, 385, 48).
edge(156, 190).
len(156, 190, 80).
edge(157, 316).
len(157, 316, 82).
edge(157, 236).
len(157, 236, 47).
edge(158, 212).
len(158, 212, 17).
edge(158, 200).
len(158, 200, 7).
edge(159, 222).
len(159, 222, 91).
edge(159, 276).
len(159, 276, 10).
edge(159, 248).
len(159, 248, 14).
edge(159, 344).
len(159, 344, 23).
edge(159, 188).
len(159, 188, 52).
edge(160, 314).
len(160, 314, 53).
edge(160, 376).
len(160, 376, 54).
edge(162, 238).
len(162, 238, 62).
edge(162, 217).
len(162, 217, 94).
edge(162, 371).
len(162, 371, 68).
edge(162, 365).
len(162, 365, 20).
edge(162, 209).
len(162, 209, 3).
arc(163, 394).
edge(163, 265).
len(163, 265, 1).
edge(163, 301).
len(163, 301, 31).
edge(164, 236).
len(164, 236, 53).
edge(164, 294).
len(164, 294, 74).
edge(164, 398).
len(164, 398, 35).
edge(166, 292).
len(166, 292, 2).
edge(167, 211).
len(167, 211, 32).
edge(167, 392).
len(167, 392, 30).
edge(168, 427).
len(168, 427, 86).
edge(168, 216).
len(168, 216, 18).
edge(169, 217).
len(169, 217, 7).
edge(169, 354).
len(169, 354, 44).
edge(169, 351).
len(169, 351, 25).
edge(171, 279).
len(171, 279, 54).
edge(171, 244).
len(171, 244, 78).
edge(173, 376).
len(173, 376, 25).
edge(174, 230).
len(174, 230, 94).
edge(174, 361).
len(174, 361, 56).
edge(174, 202).
len(174, 202, 96).
edge(174, 210).
len(174, 210, 100).
edge(174, 322).
len(174, 322, 70).
edge(175, 254).
len(175, 254, 88).
edge(175, 326).
len(175, 326, 18).
edge(176, 271).
len(176, 271, 6).
edge(177, 359).
len(177, 359, 21).
edge(177, 251).
len(177, 251, 24).
edge(177, 188).
len(177, 188, 13).
edge(177, 274).
len(177, 274, 37).
edge(177, 268).
len(177, 268, 72).
edge(177, 373).
len(177, 373, 76).
edge(177, 295).
len(177, 295, 6).
arc(247, 178).
edge(180, 450).
len(180, 450, 46).
edge(180, 218).
len(180, 218, 75).
edge(180, 385).
len(180, 385, 18).
edge(181, 370).
len(181, 370, 54).
edge(181, 414).
len(181, 414, 84).
edge(181, 438).
len(181, 438, 88).
edge(182, 185).
len(182, 185, 56).
edge(182, 223).
len(182, 223, 45).
edge(182, 377).
len(182, 377, 75).
edge(182, 199).
len(182, 199, 57).
edge(182, 379).
len(182, 379, 19).
edge(182, 408).
len(182, 408, 11).
arc(183, 249).
edge(183, 265).
len(183, 265, 67).
edge(183, 223).
len(183, 223, 20).
edge(184, 302).
len(184, 302, 39).
edge(185, 380).
len(185, 380, 6).
edge(185, 449).
len(185, 449, 22).
edge(185, 248).
len(185, 248, 27).
edge(185, 415).
len(185, 415, 73).
edge(186, 212).
len(186, 212, 96).
edge(186, 399).
len(186, 399, 80).
edge(186, 313).
len(186, 313, 23).
edge(187, 282).
len(187, 282, 52).
edge(188, 418).
len(188, 418, 77).
edge(189, 383).
len(189, 383, 37).
edge(189, 277).
len(189, 277, 48).
edge(189, 197).
len(189, 197, 96).
edge(190, 272).
len(190, 272, 25).
edge(190, 314).
len(190, 314, 24).
edge(190, 207).
len(190, 207, 10).
edge(191, 391).
len(191, 391, 57).
edge(191, 220).
len(191, 220, 64).
edge(191, 262).
len(191, 262, 86).
edge(193, 332).
len(193, 332, 2).
edge(194, 363).
len(194, 363, 35).
edge(194, 292).
len(194, 292, 95).
edge(195, 249).
len(195, 249, 15).
edge(196, 339).
len(196, 339, 37).
edge(196, 262).
len(196, 262, 58).
edge(197, 268).
len(197, 268, 28).
edge(197, 352).
len(197, 352, 2).
edge(197, 433).
len(197, 433, 4).
edge(197, 217).
len(197, 217, 55).
edge(198, 388).
len(198, 388, 14).
edge(199, 297).
len(199, 297, 36).
edge(199, 352).
len(199, 352, 29).
edge(199, 287).
len(199, 287, 49).
edge(199, 227).
len(199, 227, 100).
edge(200, 377).
len(200, 377, 13).
edge(200, 275).
len(200, 275, 68).
edge(200, 349).
len(200, 349, 32).
arc(440, 201).
edge(201, 448).
len(201, 448, 12).
edge(201, 309).
len(201, 309, 38).
edge(202, 298).
len(202, 298, 53).
edge(202, 439).
len(202, 439, 6).
edge(203, 447).
len(203, 447, 59).
edge(203, 207).
len(203, 207, 51).
edge(204, 419).
len(204, 419, 47).
edge(204, 327).
len(204, 327, 58).
edge(204, 238).
len(204, 238, 32).
edge(204, 415).
len(204, 415, 24).
edge(205, 255).
len(205, 255, 80).
edge(205, 450).
len(205, 450, 34).
edge(206, 323).
len(206, 323, 65).
edge(207, 448).
len(207, 448, 88).
edge(207, 242).
len(207, 242, 79).
edge(207, 257).
len(207, 257, 9).
edge(208, 328).
len(208, 328, 62).
edge(208, 308).
len(208, 308, 46).
edge(208, 402).
len(208, 402, 24).
edge(209, 406).
len(209, 406, 28).
edge(209, 308).
len(209, 308, 61).
edge(209, 425).
len(209, 425, 38).
edge(210, 232).
len(210, 232, 17).
edge(211, 346).
len(211, 346, 14).
edge(211, 434).
len(211, 434, 26).
edge(211, 297).
len(211, 297, 64).
edge(211, 271).
len(211, 271, 48).
edge(212, 331).
len(212, 331, 51).
edge(212, 224).
len(212, 224, 63).
edge(212, 440).
len(212, 440, 98).
edge(213, 268).
len(213, 268, 58).
edge(213, 269).
len(213, 269, 5).
edge(213, 272).
len(213, 272, 65).
edge(213, 219).
len(213, 219, 30).
edge(213, 418).
len(213, 418, 49).
arc(454, 214).
edge(214, 339).
len(214, 339, 41).
edge(214, 233).
len(214, 233, 32).
edge(214, 428).
len(214, 428, 51).
edge(214, 420).
len(214, 420, 17).
edge(215, 252).
len(215, 252, 17).
edge(215, 238).
len(215, 238, 33).
edge(216, 321).
len(216, 321, 76).
edge(216, 454).
len(216, 454, 18).
edge(217, 349).
len(217, 349, 84).
edge(217, 440).
len(217, 440, 14).
edge(218, 418).
len(218, 418, 6).
edge(219, 324).
len(219, 324, 20).
edge(219, 376).
len(219, 376, 5).
edge(219, 410).
len(219, 410, 42).
edge(219, 394).
len(219, 394, 72).
edge(220, 314).
len(220, 314, 64).
edge(220, 311).
len(220, 311, 43).
edge(220, 399).
len(220, 399, 67).
edge(221, 418).
len(221, 418, 54).
edge(222, 312).
len(222, 312, 83).
edge(222, 276).
len(222, 276, 97).
arc(222, 289).
arc(439, 222).
edge(223, 362).
len(223, 362, 73).
edge(223, 363).
len(223, 363, 54).
edge(223, 371).
len(223, 371, 19).
edge(225, 416).
len(225, 416, 29).
edge(225, 451).
len(225, 451, 63).
edge(226, 378).
len(226, 378, 30).
edge(226, 432).
len(226, 432, 32).
edge(227, 289).
len(227, 289, 75).
edge(227, 243).
len(227, 243, 46).
edge(227, 427).
len(227, 427, 99).
edge(227, 291).
len(227, 291, 78).
edge(227, 401).
len(227, 401, 94).
edge(227, 332).
len(227, 332, 19).
edge(228, 357).
len(228, 357, 46).
edge(228, 239).
len(228, 239, 34).
edge(229, 334).
len(229, 334, 70).
edge(229, 373).
len(229, 373, 40).
edge(229, 412).
len(229, 412, 64).
edge(231, 341).
len(231, 341, 24).
edge(231, 319).
len(231, 319, 76).
edge(231, 314).
len(231, 314, 89).
edge(233, 234).
len(233, 234, 97).
edge(233, 316).
len(233, 316, 36).
edge(233, 275).
len(233, 275, 70).
edge(234, 333).
len(234, 333, 17).
edge(234, 243).
len(234, 243, 80).
edge(234, 341).
len(234, 341, 12).
edge(235, 297).
len(235, 297, 78).
edge(235, 262).
len(235, 262, 49).
edge(235, 236).
len(235, 236, 66).
edge(236, 276).
len(236, 276, 28).
edge(236, 315).
len(236, 315, 18).
edge(236, 452).
len(236, 452, 84).
edge(236, 351).
len(236, 351, 92).
edge(237, 256).
len(237, 256, 45).
edge(239, 378).
len(239, 378, 98).
edge(239, 328).
len(239, 328, 90).
edge(239, 329).
len(239, 329, 22).
edge(241, 399).
len(241, 399, 77).
edge(241, 269).
len(241, 269, 72).
edge(241, 413).
len(241, 413, 50).
edge(241, 299).
len(241, 299, 84).
edge(241, 339).
len(241, 339, 44).
edge(242, 358).
len(242, 358, 18).
edge(242, 373).
len(242, 373, 23).
edge(243, 245).
len(243, 245, 84).
edge(243, 450).
len(243, 450, 100).
edge(244, 412).
len(244, 412, 82).
edge(244, 348).
len(244, 348, 73).
edge(245, 266).
len(245, 266, 24).
edge(245, 319).
len(245, 319, 12).
edge(246, 290).
len(246, 290, 2).
edge(246, 418).
len(246, 418, 81).
edge(247, 388).
len(247, 388, 33).
edge(247, 262).
len(247, 262, 43).
edge(247, 319).
len(247, 319, 87).
edge(248, 342).
len(248, 342, 3).
edge(249, 329).
len(249, 329, 44).
edge(249, 442).
len(249, 442, 76).
edge(250, 424).
len(250, 424, 95).
edge(251, 425).
len(251, 425, 73).
edge(252, 439).
len(252, 439, 14).
edge(252, 267).
len(252, 267, 56).
edge(253, 352).
len(253, 352, 46).
edge(253, 337).
len(253, 337, 11).
edge(254, 424).
len(254, 424, 76).
edge(254, 363).
len(254, 363, 90).
edge(255, 371).
len(255, 371, 5).
edge(255, 287).
len(255, 287, 51).
edge(255, 341).
len(255, 341, 78).
edge(255, 263).
len(255, 263, 43).
edge(256, 275).
len(256, 275, 98).
edge(256, 381).
len(256, 381, 91).
edge(257, 340).
len(257, 340, 40).
edge(258, 330).
len(258, 330, 81).
edge(259, 352).
len(259, 352, 85).
edge(260, 331).
len(260, 331, 9).
edge(260, 289).
len(260, 289, 93).
edge(261, 293).
len(261, 293, 45).
arc(261, 318).
edge(262, 400).
len(262, 400, 40).
edge(264, 266).
len(264, 266, 96).
arc(300, 264).
edge(265, 430).
len(265, 430, 99).
edge(266, 395).
len(266, 395, 9).
edge(267, 389).
len(267, 389, 96).
edge(267, 344).
len(267, 344, 76).
edge(267, 378).
len(267, 378, 75).
edge(267, 295).
len(267, 295, 60).
edge(268, 351).
len(268, 351, 81).
edge(269, 365).
len(269, 365, 18).
edge(269, 349).
len(269, 349, 34).
edge(271, 304).
len(271, 304, 71).
edge(271, 290).
len(271, 290, 56).
edge(272, 354).
len(272, 354, 90).
edge(272, 419).
len(272, 419, 49).
edge(272, 391).
len(272, 391, 1).
edge(272, 378).
len(272, 378, 48).
edge(273, 302).
len(273, 302, 88).
edge(276, 290).
len(276, 290, 2).
edge(278, 344).
len(278, 344, 92).
edge(279, 317).
len(279, 317, 49).
edge(279, 323).
len(279, 323, 56).
edge(279, 360).
len(279, 360, 65).
edge(280, 399).
len(280, 399, 97).
edge(280, 424).
len(280, 424, 37).
edge(280, 442).
len(280, 442, 99).
edge(281, 365).
len(281, 365, 66).
edge(282, 389).
len(282, 389, 40).
edge(282, 437).
len(282, 437, 87).
edge(282, 367).
len(282, 367, 27).
edge(283, 387).
len(283, 387, 2).
edge(283, 454).
len(283, 454, 2).
edge(283, 310).
len(283, 310, 74).
edge(284, 310).
len(284, 310, 30).
edge(285, 356).
len(285, 356, 46).
edge(285, 319).
len(285, 319, 12).
edge(287, 300).
len(287, 300, 11).
edge(288, 320).
len(288, 320, 25).
edge(288, 359).
len(288, 359, 79).
edge(289, 388).
len(289, 388, 11).
edge(290, 293).
len(290, 293, 32).
edge(290, 338).
len(290, 338, 71).
edge(290, 431).
len(290, 431, 86).
edge(290, 397).
len(290, 397, 39).
edge(292, 313).
len(292, 313, 3).
edge(292, 300).
len(292, 300, 79).
edge(292, 387).
len(292, 387, 20).
edge(293, 338).
len(293, 338, 89).
edge(294, 447).
len(294, 447, 7).
edge(295, 375).
len(295, 375, 78).
edge(295, 391).
len(295, 391, 6).
edge(296, 351).
len(296, 351, 79).
edge(299, 374).
len(299, 374, 25).
edge(300, 356).
len(300, 356, 84).
edge(300, 397).
len(300, 397, 7).
edge(301, 376).
len(301, 376, 34).
edge(301, 302).
len(301, 302, 1).
edge(302, 427).
len(302, 427, 13).
edge(304, 438).
len(304, 438, 51).
edge(305, 347).
len(305, 347, 36).
edge(305, 358).
len(305, 358, 34).
edge(305, 387).
len(305, 387, 27).
edge(306, 387).
len(306, 387, 96).
edge(306, 449).
len(306, 449, 70).
edge(306, 408).
len(306, 408, 54).
edge(307, 395).
len(307, 395, 60).
edge(307, 355).
len(307, 355, 84).
edge(308, 336).
len(308, 336, 84).
edge(308, 413).
len(308, 413, 79).
edge(309, 310).
len(309, 310, 18).
edge(310, 383).
len(310, 383, 69).
edge(310, 403).
len(310, 403, 88).
edge(310, 334).
len(310, 334, 36).
edge(311, 436).
len(311, 436, 50).
edge(311, 380).
len(311, 380, 54).
edge(313, 396).
len(313, 396, 20).
edge(313, 342).
len(313, 342, 27).
edge(315, 366).
len(315, 366, 4).
edge(315, 370).
len(315, 370, 36).
edge(315, 329).
len(315, 329, 75).
edge(317, 318).
len(317, 318, 83).
edge(317, 330).
len(317, 330, 25).
arc(393, 317).
edge(318, 386).
len(318, 386, 28).
edge(318, 419).
len(318, 419, 96).
edge(319, 345).
len(319, 345, 44).
edge(320, 422).
len(320, 422, 87).
edge(320, 450).
len(320, 450, 58).
edge(322, 399).
len(322, 399, 63).
edge(323, 377).
len(323, 377, 69).
edge(323, 358).
len(323, 358, 82).
edge(323, 367).
len(323, 367, 79).
edge(324, 352).
len(324, 352, 57).
edge(325, 402).
len(325, 402, 8).
edge(326, 435).
len(326, 435, 1).
edge(326, 334).
len(326, 334, 36).
edge(327, 347).
len(327, 347, 59).
edge(328, 427).
len(328, 427, 89).
edge(328, 422).
len(328, 422, 46).
edge(328, 377).
len(328, 377, 36).
edge(329, 452).
len(329, 452, 9).
edge(329, 417).
len(329, 417, 45).
edge(330, 377).
len(330, 377, 94).
edge(331, 395).
len(331, 395, 60).
edge(333, 454).
len(333, 454, 95).
edge(333, 426).
len(333, 426, 63).
edge(334, 450).
len(334, 450, 28).
edge(334, 420).
len(334, 420, 90).
edge(335, 407).
len(335, 407, 63).
edge(336, 410).
len(336, 410, 80).
edge(336, 361).
len(336, 361, 48).
edge(338, 418).
len(338, 418, 62).
edge(342, 411).
len(342, 411, 36).
edge(342, 379).
len(342, 379, 31).
edge(343, 455).
len(343, 455, 69).
edge(343, 400).
len(343, 400, 46).
edge(343, 453).
len(343, 453, 40).
arc(344, 404).
edge(346, 405).
len(346, 405, 57).
edge(347, 432).
len(347, 432, 28).
edge(350, 361).
len(350, 361, 18).
edge(351, 353).
len(351, 353, 45).
edge(352, 359).
len(352, 359, 96).
edge(355, 382).
len(355, 382, 65).
edge(357, 439).
len(357, 439, 38).
edge(358, 369).
len(358, 369, 64).
edge(359, 392).
len(359, 392, 2).
edge(359, 446).
len(359, 446, 51).
edge(361, 398).
len(361, 398, 81).
edge(362, 369).
len(362, 369, 48).
edge(362, 397).
len(362, 397, 81).
edge(362, 395).
len(362, 395, 36).
edge(365, 386).
len(365, 386, 65).
edge(365, 429).
len(365, 429, 80).
edge(366, 427).
len(366, 427, 84).
edge(367, 385).
len(367, 385, 66).
edge(367, 444).
len(367, 444, 66).
edge(368, 441).
len(368, 441, 1).
edge(368, 403).
len(368, 403, 27).
edge(369, 390).
len(369, 390, 65).
edge(370, 451).
len(370, 451, 85).
edge(372, 377).
len(372, 377, 79).
edge(372, 409).
len(372, 409, 70).
edge(374, 398).
len(374, 398, 42).
edge(377, 430).
len(377, 430, 5).
edge(377, 455).
len(377, 455, 80).
edge(379, 452).
len(379, 452, 61).
edge(379, 418).
len(379, 418, 11).
edge(380, 436).
len(380, 436, 16).
edge(382, 455).
len(382, 455, 91).
edge(383, 390).
len(383, 390, 55).
edge(384, 429).
len(384, 429, 23).
edge(386, 405).
len(386, 405, 47).
edge(387, 426).
len(387, 426, 96).
edge(388, 440).
len(388, 440, 8).
edge(394, 455).
len(394, 455, 65).
edge(395, 420).
len(395, 420, 39).
edge(396, 410).
len(396, 410, 42).
edge(404, 433).
len(404, 433, 80).
edge(406, 441).
len(406, 441, 13).
edge(407, 416).
len(407, 416, 48).
edge(408, 441).
len(408, 441, 10).
edge(412, 427).
len(412, 427, 16).
edge(414, 439).
len(414, 439, 69).
edge(414, 425).
len(414, 425, 54).
edge(415, 432).
len(415, 432, 30).
edge(418, 421).
len(418, 421, 39).
edge(420, 425).
len(420, 425, 40).
edge(432, 455).
len(432, 455, 52).
edge(437, 454).
len(437, 454, 87).
edge(440, 443).
len(440, 443, 79).
