vtx(1..400).
edge(1, 258).
len(1, 258, 3).
edge(1, 165).
len(1, 165, 7).
edge(1, 89).
len(1, 89, 64).
edge(2, 287).
len(2, 287, 76).
edge(2, 264).
len(2, 264, 37).
edge(2, 284).
len(2, 284, 20).
edge(2, 15).
len(2, 15, 28).
edge(3, 215).
len(3, 215, 56).
edge(3, 343).
len(3, 343, 47).
edge(3, 322).
len(3, 322, 38).
edge(3, 5).
len(3, 5, 22).
edge(4, 224).
len(4, 224, 9).
edge(4, 31).
len(4, 31, 7).
edge(4, 380).
len(4, 380, 6).
edge(5, 239).
len(5, 239, 71).
edge(5, 381).
len(5, 381, 33).
edge(5, 253).
len(5, 253, 92).
edge(5, 80).
len(5, 80, 26).
edge(5, 265).
len(5, 265, 54).
edge(5, 197).
len(5, 197, 90).
edge(6, 272).
len(6, 272, 98).
edge(6, 319).
len(6, 319, 30).
edge(6, 295).
len(6, 295, 57).
edge(6, 92).
len(6, 92, 7).
edge(7, 256).
len(7, 256, 47).
edge(7, 242).
len(7, 242, 74).
edge(7, 67).
len(7, 67, 13).
edge(7, 110).
len(7, 110, 7).
edge(7, 220).
len(7, 220, 10).
edge(8, 251).
len(8, 251, 40).
edge(8, 186).
len(8, 186, 37).
edge(8, 200).
len(8, 200, 18).
edge(8, 151).
len(8, 151, 58).
edge(9, 171).
len(9, 171, 73).
edge(9, 203).
len(9, 203, 46).
edge(9, 273).
len(9, 273, 59).
edge(9, 210).
len(9, 210, 71).
edge(10, 18).
len(10, 18, 86).
edge(10, 177).
len(10, 177, 69).
edge(10, 249).
len(10, 249, 96).
edge(10, 52).
len(10, 52, 47).
edge(10, 290).
len(10, 290, 19).
edge(11, 216).
len(11, 216, 11).
edge(11, 180).
len(11, 180, 70).
edge(12, 19).
len(12, 19, 42).
edge(12, 17).
len(12, 17, 15).
edge(12, 16).
len(12, 16, 8).
edge(12, 285).
len(12, 285, 38).
edge(12, 87).
len(12, 87, 18).
edge(12, 309).
len(12, 309, 33).
edge(13, 168).
len(13, 168, 91).
edge(13, 80).
len(13, 80, 42).
edge(13, 271).
len(13, 271, 69).
edge(13, 109).
len(13, 109, 61).
edge(13, 240).
len(13, 240, 55).
edge(14, 29).
len(14, 29, 31).
edge(14, 314).
len(14, 314, 12).
edge(14, 73).
len(14, 73, 1).
edge(14, 40).
len(14, 40, 81).
edge(15, 66).
len(15, 66, 52).
edge(15, 153).
len(15, 153, 90).
edge(16, 158).
len(16, 158, 48).
edge(16, 294).
len(16, 294, 17).
edge(16, 235).
len(16, 235, 19).
edge(16, 349).
len(16, 349, 85).
edge(17, 264).
len(17, 264, 52).
arc(102, 17).
edge(17, 353).
len(17, 353, 72).
edge(17, 263).
len(17, 263, 20).
edge(17, 211).
len(17, 211, 100).
edge(17, 154).
len(17, 154, 33).
edge(17, 210).
len(17, 210, 34).
arc(265, 18).
edge(18, 375).
len(18, 375, 97).
edge(18, 48).
len(18, 48, 51).
edge(18, 273).
len(18, 273, 32).
edge(19, 369).
len(19, 369, 51).
edge(19, 276).
len(19, 276, 52).
edge(19, 210).
len(19, 210, 9).
edge(19, 114).
len(19, 114, 87).
edge(19, 288).
len(19, 288, 8).
arc(20, 63).
edge(20, 99).
len(20, 99, 82).
edge(20, 187).
len(20, 187, 48).
edge(20, 399).
len(20, 399, 41).
edge(21, 110).
len(21, 110, 1).
edge(21, 177).
len(21, 177, 13).
edge(21, 284).
len(21, 284, 30).
edge(21, 242).
len(21, 242, 61).
edge(21, 367).
len(21, 367, 36).
edge(21, 160).
len(21, 160, 55).
edge(22, 230).
len(22, 230, 78).
edge(22, 385).
len(22, 385, 51).
edge(22, 381).
len(22, 381, 9).
edge(22, 262).
len(22, 262, 98).
edge(23, 95).
len(23, 95, 48).
edge(23, 258).
len(23, 258, 61).
edge(23, 202).
len(23, 202, 87).
edge(24, 211).
len(24, 211, 41).
edge(24, 205).
len(24, 205, 86).
edge(24, 265).
len(24, 265, 28).
edge(24, 41).
len(24, 41, 30).
edge(24, 312).
len(24, 312, 82).
edge(24, 114).
len(24, 114, 51).
edge(25, 282).
len(25, 282, 72).
edge(25, 91).
len(25, 91, 47).
edge(25, 261).
len(25, 261, 67).
edge(25, 207).
len(25, 207, 32).
edge(25, 35).
len(25, 35, 83).
edge(25, 272).
len(25, 272, 43).
edge(25, 301).
len(25, 301, 55).
edge(26, 66).
len(26, 66, 40).
arc(381, 26).
edge(26, 141).
len(26, 141, 53).
edge(26, 100).
len(26, 100, 77).
edge(26, 368).
len(26, 368, 9).
edge(26, 121).
len(26, 121, 34).
edge(26, 185).
len(26, 185, 65).
edge(26, 205).
len(26, 205, 66).
edge(27, 324).
len(27, 324, 13).
edge(27, 196).
len(27, 196, 53).
edge(27, 296).
len(27, 296, 84).
edge(27, 293).
len(27, 293, 1).
edge(27, 88).
len(27, 88, 95).
edge(27, 49).
len(27, 49, 12).
edge(28, 315).
len(28, 315, 80).
edge(28, 346).
len(28, 346, 85).
edge(28, 186).
len(28, 186, 34).
edge(28, 302).
len(28, 302, 92).
edge(28, 95).
len(28, 95, 72).
edge(29, 250).
len(29, 250, 5).
edge(29, 92).
len(29, 92, 33).
edge(30, 350).
len(30, 350, 96).
edge(30, 237).
len(30, 237, 79).
edge(30, 111).
len(30, 111, 64).
edge(30, 385).
len(30, 385, 49).
edge(30, 372).
len(30, 372, 21).
edge(30, 148).
len(30, 148, 31).
edge(30, 393).
len(30, 393, 17).
edge(30, 171).
len(30, 171, 4).
edge(31, 308).
len(31, 308, 25).
edge(31, 181).
len(31, 181, 80).
edge(31, 120).
len(31, 120, 1).
edge(31, 395).
len(31, 395, 14).
edge(31, 58).
len(31, 58, 10).
edge(32, 311).
len(32, 311, 90).
edge(32, 61).
len(32, 61, 51).
edge(33, 211).
len(33, 211, 62).
edge(33, 34).
len(33, 34, 72).
edge(33, 325).
len(33, 325, 58).
edge(33, 112).
len(33, 112, 9).
edge(34, 199).
len(34, 199, 11).
edge(35, 346).
len(35, 346, 71).
edge(35, 231).
len(35, 231, 69).
edge(35, 211).
len(35, 211, 97).
edge(35, 129).
len(35, 129, 61).
edge(35, 241).
len(35, 241, 58).
edge(35, 115).
len(35, 115, 31).
edge(36, 122).
len(36, 122, 11).
edge(36, 205).
len(36, 205, 8).
edge(36, 199).
len(36, 199, 53).
edge(36, 256).
len(36, 256, 67).
edge(36, 174).
len(36, 174, 12).
edge(37, 147).
len(37, 147, 2).
edge(37, 202).
len(37, 202, 32).
edge(37, 39).
len(37, 39, 81).
edge(37, 242).
len(37, 242, 36).
edge(38, 145).
len(38, 145, 18).
edge(38, 339).
len(38, 339, 95).
edge(38, 238).
len(38, 238, 89).
edge(39, 265).
len(39, 265, 54).
edge(39, 231).
len(39, 231, 6).
edge(39, 184).
len(39, 184, 24).
edge(39, 48).
len(39, 48, 92).
edge(40, 265).
len(40, 265, 79).
edge(40, 300).
len(40, 300, 86).
edge(40, 42).
len(40, 42, 90).
edge(40, 314).
len(40, 314, 81).
edge(40, 124).
len(40, 124, 58).
edge(40, 258).
len(40, 258, 90).
edge(41, 167).
len(41, 167, 94).
edge(41, 365).
len(41, 365, 27).
edge(41, 370).
len(41, 370, 19).
edge(41, 194).
len(41, 194, 45).
edge(42, 243).
len(42, 243, 86).
edge(42, 318).
len(42, 318, 32).
edge(42, 249).
len(42, 249, 81).
edge(42, 146).
len(42, 146, 80).
edge(42, 202).
len(42, 202, 86).
edge(43, 168).
len(43, 168, 71).
edge(43, 359).
len(43, 359, 99).
edge(43, 373).
len(43, 373, 10).
edge(43, 317).
len(43, 317, 46).
edge(43, 281).
len(43, 281, 82).
edge(43, 221).
len(43, 221, 61).
edge(43, 165).
len(43, 165, 73).
edge(43, 66).
len(43, 66, 73).
edge(44, 360).
len(44, 360, 3).
edge(44, 73).
len(44, 73, 62).
edge(44, 367).
len(44, 367, 49).
edge(44, 234).
len(44, 234, 32).
edge(45, 57).
len(45, 57, 73).
edge(45, 155).
len(45, 155, 32).
edge(45, 349).
len(45, 349, 56).
edge(46, 382).
len(46, 382, 51).
edge(47, 121).
len(47, 121, 80).
edge(48, 143).
len(48, 143, 53).
edge(48, 93).
len(48, 93, 29).
edge(48, 234).
len(48, 234, 58).
edge(49, 122).
len(49, 122, 98).
edge(49, 210).
len(49, 210, 61).
edge(49, 320).
len(49, 320, 80).
edge(49, 135).
len(49, 135, 45).
edge(49, 142).
len(49, 142, 84).
edge(49, 372).
len(49, 372, 70).
edge(50, 358).
len(50, 358, 34).
edge(50, 309).
len(50, 309, 40).
edge(50, 292).
len(50, 292, 14).
edge(50, 262).
len(50, 262, 28).
edge(50, 58).
len(50, 58, 25).
edge(50, 319).
len(50, 319, 12).
edge(50, 53).
len(50, 53, 50).
edge(51, 155).
len(51, 155, 39).
edge(51, 375).
len(51, 375, 40).
edge(51, 295).
len(51, 295, 4).
edge(51, 160).
len(51, 160, 26).
edge(52, 178).
len(52, 178, 70).
edge(52, 211).
len(52, 211, 68).
edge(52, 74).
len(52, 74, 57).
arc(53, 96).
edge(53, 328).
len(53, 328, 96).
edge(53, 232).
len(53, 232, 10).
edge(54, 239).
len(54, 239, 100).
edge(54, 203).
len(54, 203, 68).
arc(252, 55).
edge(55, 88).
len(55, 88, 30).
edge(55, 288).
len(55, 288, 37).
edge(55, 246).
len(55, 246, 69).
edge(56, 81).
len(56, 81, 99).
edge(57, 271).
len(57, 271, 66).
edge(58, 191).
len(58, 191, 35).
edge(58, 182).
len(58, 182, 22).
edge(58, 265).
len(58, 265, 64).
edge(59, 392).
len(59, 392, 53).
edge(59, 95).
len(59, 95, 100).
edge(59, 156).
len(59, 156, 13).
edge(59, 110).
len(59, 110, 30).
edge(59, 236).
len(59, 236, 52).
edge(60, 126).
len(60, 126, 70).
edge(60, 73).
len(60, 73, 32).
edge(60, 390).
len(60, 390, 80).
edge(60, 271).
len(60, 271, 67).
edge(60, 193).
len(60, 193, 96).
edge(61, 162).
len(61, 162, 34).
edge(61, 163).
len(61, 163, 85).
edge(61, 166).
len(61, 166, 4).
edge(61, 183).
len(61, 183, 39).
edge(61, 372).
len(61, 372, 39).
edge(62, 65).
len(62, 65, 85).
edge(62, 76).
len(62, 76, 37).
edge(62, 106).
len(62, 106, 83).
edge(62, 364).
len(62, 364, 38).
edge(62, 202).
len(62, 202, 22).
edge(62, 182).
len(62, 182, 91).
edge(62, 92).
len(62, 92, 83).
edge(62, 373).
len(62, 373, 85).
edge(62, 63).
len(62, 63, 66).
edge(63, 345).
len(63, 345, 42).
edge(64, 290).
len(64, 290, 9).
edge(64, 174).
len(64, 174, 50).
edge(64, 268).
len(64, 268, 67).
edge(65, 124).
len(65, 124, 28).
edge(65, 380).
len(65, 380, 57).
edge(65, 82).
len(65, 82, 12).
edge(65, 144).
len(65, 144, 73).
edge(66, 69).
len(66, 69, 53).
edge(66, 133).
len(66, 133, 95).
edge(66, 188).
len(66, 188, 65).
edge(66, 310).
len(66, 310, 47).
arc(66, 79).
edge(67, 187).
len(67, 187, 45).
edge(67, 308).
len(67, 308, 23).
edge(67, 344).
len(67, 344, 56).
edge(67, 242).
len(67, 242, 68).
edge(67, 314).
len(67, 314, 16).
edge(67, 75).
len(67, 75, 74).
edge(67, 329).
len(67, 329, 83).
edge(67, 86).
len(67, 86, 25).
edge(68, 345).
len(68, 345, 37).
edge(68, 77).
len(68, 77, 48).
edge(68, 202).
len(68, 202, 72).
edge(68, 228).
len(68, 228, 38).
edge(69, 217).
len(69, 217, 26).
edge(69, 204).
len(69, 204, 39).
edge(69, 102).
len(69, 102, 83).
edge(69, 317).
len(69, 317, 64).
edge(69, 88).
len(69, 88, 55).
edge(70, 136).
len(70, 136, 97).
edge(70, 354).
len(70, 354, 76).
edge(71, 91).
len(71, 91, 96).
edge(71, 362).
len(71, 362, 51).
edge(71, 148).
len(71, 148, 79).
edge(72, 372).
len(72, 372, 75).
edge(72, 163).
len(72, 163, 19).
edge(72, 247).
len(72, 247, 71).
edge(72, 344).
len(72, 344, 4).
edge(72, 241).
len(72, 241, 14).
edge(73, 269).
len(73, 269, 25).
edge(73, 361).
len(73, 361, 66).
edge(73, 392).
len(73, 392, 74).
edge(74, 151).
len(74, 151, 17).
edge(74, 292).
len(74, 292, 87).
edge(74, 131).
len(74, 131, 4).
edge(75, 185).
len(75, 185, 10).
edge(75, 78).
len(75, 78, 44).
edge(75, 274).
len(75, 274, 63).
edge(75, 193).
len(75, 193, 44).
edge(76, 369).
len(76, 369, 7).
edge(76, 77).
len(76, 77, 9).
edge(76, 227).
len(76, 227, 70).
edge(76, 97).
len(76, 97, 75).
edge(77, 376).
len(77, 376, 5).
edge(77, 321).
len(77, 321, 42).
edge(77, 325).
len(77, 325, 4).
edge(77, 313).
len(77, 313, 99).
edge(78, 107).
len(78, 107, 1).
edge(78, 224).
len(78, 224, 46).
edge(78, 88).
len(78, 88, 47).
edge(78, 234).
len(78, 234, 81).
edge(79, 263).
len(79, 263, 81).
edge(79, 273).
len(79, 273, 46).
edge(80, 164).
len(80, 164, 20).
edge(80, 94).
len(80, 94, 70).
edge(81, 293).
len(81, 293, 72).
edge(81, 245).
len(81, 245, 48).
edge(81, 240).
len(81, 240, 49).
edge(83, 135).
len(83, 135, 97).
edge(83, 202).
len(83, 202, 82).
edge(83, 184).
len(83, 184, 67).
edge(83, 248).
len(83, 248, 52).
edge(83, 356).
len(83, 356, 33).
edge(83, 267).
len(83, 267, 5).
edge(83, 113).
len(83, 113, 69).
edge(83, 249).
len(83, 249, 59).
edge(84, 200).
len(84, 200, 30).
edge(84, 238).
len(84, 238, 62).
edge(84, 286).
len(84, 286, 26).
edge(85, 308).
len(85, 308, 93).
edge(85, 316).
len(85, 316, 49).
edge(85, 274).
len(85, 274, 43).
edge(85, 345).
len(85, 345, 17).
edge(85, 187).
len(85, 187, 12).
edge(85, 277).
len(85, 277, 29).
edge(86, 394).
len(86, 394, 10).
edge(86, 115).
len(86, 115, 61).
edge(86, 105).
len(86, 105, 2).
edge(87, 337).
len(87, 337, 87).
edge(87, 360).
len(87, 360, 98).
arc(200, 88).
edge(88, 368).
len(88, 368, 27).
edge(88, 159).
len(88, 159, 99).
edge(88, 323).
len(88, 323, 33).
edge(89, 226).
len(89, 226, 16).
edge(89, 191).
len(89, 191, 100).
edge(90, 184).
len(90, 184, 86).
edge(90, 339).
len(90, 339, 80).
arc(225, 90).
edge(92, 282).
len(92, 282, 58).
edge(92, 371).
len(92, 371, 96).
edge(93, 390).
len(93, 390, 94).
edge(93, 236).
len(93, 236, 67).
edge(93, 230).
len(93, 230, 5).
edge(94, 285).
len(94, 285, 62).
edge(94, 368).
len(94, 368, 77).
edge(94, 150).
len(94, 150, 68).
edge(95, 205).
len(95, 205, 5).
edge(95, 343).
len(95, 343, 31).
edge(96, 172).
len(96, 172, 20).
edge(96, 305).
len(96, 305, 47).
edge(96, 400).
len(96, 400, 60).
edge(97, 321).
len(97, 321, 40).
edge(97, 148).
len(97, 148, 20).
edge(97, 259).
len(97, 259, 47).
edge(98, 264).
len(98, 264, 36).
edge(98, 301).
len(98, 301, 49).
edge(99, 152).
len(99, 152, 73).
edge(99, 190).
len(99, 190, 4).
edge(99, 149).
len(99, 149, 10).
edge(99, 191).
len(99, 191, 40).
edge(100, 158).
len(100, 158, 20).
edge(100, 353).
len(100, 353, 41).
edge(100, 243).
len(100, 243, 30).
edge(100, 313).
len(100, 313, 25).
edge(101, 259).
len(101, 259, 38).
edge(101, 124).
len(101, 124, 83).
edge(101, 138).
len(101, 138, 60).
edge(102, 198).
len(102, 198, 85).
edge(102, 155).
len(102, 155, 68).
edge(102, 371).
len(102, 371, 91).
arc(103, 222).
edge(103, 378).
len(103, 378, 98).
edge(103, 318).
len(103, 318, 84).
edge(103, 357).
len(103, 357, 75).
edge(103, 329).
len(103, 329, 20).
edge(104, 299).
len(104, 299, 7).
edge(104, 356).
len(104, 356, 2).
edge(104, 295).
len(104, 295, 74).
edge(104, 302).
len(104, 302, 34).
edge(106, 205).
len(106, 205, 73).
edge(106, 225).
len(106, 225, 50).
edge(107, 277).
len(107, 277, 74).
edge(107, 359).
len(107, 359, 55).
edge(107, 303).
len(107, 303, 15).
edge(107, 224).
len(107, 224, 92).
edge(107, 333).
len(107, 333, 55).
edge(108, 340).
len(108, 340, 54).
edge(108, 123).
len(108, 123, 90).
edge(109, 234).
len(109, 234, 13).
edge(110, 296).
len(110, 296, 76).
edge(110, 196).
len(110, 196, 3).
edge(110, 168).
len(110, 168, 81).
edge(110, 277).
len(110, 277, 14).
edge(110, 288).
len(110, 288, 72).
edge(111, 148).
len(111, 148, 18).
edge(111, 214).
len(111, 214, 80).
edge(112, 210).
len(112, 210, 7).
edge(113, 294).
len(113, 294, 40).
edge(113, 315).
len(113, 315, 13).
edge(113, 256).
len(113, 256, 98).
edge(114, 225).
len(114, 225, 48).
edge(114, 364).
len(114, 364, 8).
edge(115, 186).
len(115, 186, 19).
edge(115, 261).
len(115, 261, 61).
edge(115, 167).
len(115, 167, 64).
edge(115, 180).
len(115, 180, 71).
edge(116, 164).
len(116, 164, 26).
edge(116, 223).
len(116, 223, 59).
edge(116, 251).
len(116, 251, 58).
edge(116, 319).
len(116, 319, 2).
edge(117, 174).
len(117, 174, 57).
edge(118, 357).
len(118, 357, 23).
edge(118, 261).
len(118, 261, 14).
edge(118, 232).
len(118, 232, 63).
edge(118, 365).
len(118, 365, 91).
edge(118, 382).
len(118, 382, 72).
edge(119, 238).
len(119, 238, 72).
arc(120, 264).
arc(227, 120).
edge(120, 317).
len(120, 317, 99).
edge(121, 394).
len(121, 394, 15).
edge(121, 184).
len(121, 184, 62).
edge(121, 161).
len(121, 161, 54).
edge(122, 153).
len(122, 153, 83).
edge(122, 210).
len(122, 210, 69).
edge(122, 223).
len(122, 223, 96).
edge(123, 291).
len(123, 291, 54).
edge(124, 217).
len(124, 217, 79).
arc(363, 124).
edge(124, 354).
len(124, 354, 28).
edge(125, 170).
len(125, 170, 90).
edge(125, 246).
len(125, 246, 49).
edge(126, 293).
len(126, 293, 95).
edge(126, 375).
len(126, 375, 35).
edge(126, 153).
len(126, 153, 50).
edge(126, 354).
len(126, 354, 68).
edge(126, 201).
len(126, 201, 67).
edge(127, 194).
len(127, 194, 46).
edge(127, 149).
len(127, 149, 53).
edge(127, 270).
len(127, 270, 36).
edge(128, 225).
len(128, 225, 90).
edge(128, 350).
len(128, 350, 64).
edge(128, 228).
len(128, 228, 47).
edge(128, 299).
len(128, 299, 87).
edge(129, 172).
len(129, 172, 23).
edge(129, 140).
len(129, 140, 43).
edge(129, 280).
len(129, 280, 30).
edge(129, 292).
len(129, 292, 41).
edge(129, 256).
len(129, 256, 19).
edge(130, 206).
len(130, 206, 39).
edge(130, 334).
len(130, 334, 8).
edge(130, 152).
len(130, 152, 9).
edge(131, 387).
len(131, 387, 16).
edge(131, 198).
len(131, 198, 90).
edge(131, 276).
len(131, 276, 63).
arc(131, 157).
edge(132, 180).
len(132, 180, 27).
edge(133, 177).
len(133, 177, 23).
edge(133, 239).
len(133, 239, 60).
edge(133, 166).
len(133, 166, 48).
edge(134, 164).
len(134, 164, 54).
edge(135, 375).
len(135, 375, 49).
edge(135, 209).
len(135, 209, 12).
edge(135, 203).
len(135, 203, 39).
edge(136, 350).
len(136, 350, 35).
edge(136, 140).
len(136, 140, 80).
edge(136, 251).
len(136, 251, 26).
edge(136, 214).
len(136, 214, 3).
edge(136, 144).
len(136, 144, 26).
edge(136, 223).
len(136, 223, 95).
edge(136, 292).
len(136, 292, 66).
edge(136, 354).
len(136, 354, 2).
edge(137, 162).
len(137, 162, 35).
edge(138, 372).
len(138, 372, 7).
arc(179, 138).
edge(139, 195).
len(139, 195, 90).
edge(139, 287).
len(139, 287, 42).
edge(139, 356).
len(139, 356, 66).
edge(139, 377).
len(139, 377, 84).
edge(139, 364).
len(139, 364, 65).
edge(139, 210).
len(139, 210, 73).
edge(139, 395).
len(139, 395, 100).
edge(140, 398).
len(140, 398, 30).
edge(140, 162).
len(140, 162, 79).
edge(141, 341).
len(141, 341, 98).
edge(141, 218).
len(141, 218, 59).
edge(141, 158).
len(141, 158, 5).
edge(142, 228).
len(142, 228, 2).
edge(142, 247).
len(142, 247, 92).
edge(142, 168).
len(142, 168, 18).
edge(142, 336).
len(142, 336, 29).
edge(142, 181).
len(142, 181, 11).
edge(142, 217).
len(142, 217, 44).
edge(143, 148).
len(143, 148, 95).
edge(143, 250).
len(143, 250, 41).
edge(143, 231).
len(143, 231, 31).
edge(143, 280).
len(143, 280, 38).
edge(143, 290).
len(143, 290, 97).
edge(144, 354).
len(144, 354, 83).
edge(144, 159).
len(144, 159, 4).
edge(144, 318).
len(144, 318, 60).
edge(145, 395).
len(145, 395, 63).
edge(145, 152).
len(145, 152, 86).
edge(145, 215).
len(145, 215, 40).
edge(145, 247).
len(145, 247, 42).
edge(145, 181).
len(145, 181, 38).
edge(146, 284).
len(146, 284, 57).
edge(146, 393).
len(146, 393, 92).
edge(146, 168).
len(146, 168, 27).
edge(147, 400).
len(147, 400, 12).
edge(147, 326).
len(147, 326, 61).
edge(147, 396).
len(147, 396, 34).
edge(148, 276).
len(148, 276, 5).
edge(148, 269).
len(148, 269, 4).
edge(148, 351).
len(148, 351, 9).
edge(149, 324).
len(149, 324, 47).
edge(149, 178).
len(149, 178, 27).
edge(149, 355).
len(149, 355, 27).
edge(149, 313).
len(149, 313, 51).
edge(150, 304).
len(150, 304, 13).
edge(150, 178).
len(150, 178, 17).
edge(150, 161).
len(150, 161, 25).
edge(150, 236).
len(150, 236, 98).
edge(152, 196).
len(152, 196, 32).
edge(153, 293).
len(153, 293, 31).
edge(154, 176).
len(154, 176, 79).
arc(156, 298).
edge(156, 370).
len(156, 370, 7).
edge(156, 184).
len(156, 184, 92).
edge(156, 222).
len(156, 222, 2).
edge(157, 251).
len(157, 251, 33).
edge(157, 362).
len(157, 362, 84).
edge(158, 247).
len(158, 247, 37).
edge(158, 169).
len(158, 169, 4).
edge(158, 190).
len(158, 190, 82).
edge(158, 320).
len(158, 320, 20).
edge(159, 307).
len(159, 307, 80).
edge(161, 240).
len(161, 240, 70).
edge(162, 302).
len(162, 302, 47).
edge(162, 289).
len(162, 289, 33).
edge(163, 358).
len(163, 358, 72).
edge(163, 207).
len(163, 207, 52).
edge(163, 274).
len(163, 274, 72).
edge(164, 270).
len(164, 270, 32).
edge(164, 252).
len(164, 252, 41).
edge(164, 355).
len(164, 355, 15).
edge(164, 204).
len(164, 204, 77).
edge(165, 206).
len(165, 206, 48).
edge(165, 277).
len(165, 277, 94).
edge(167, 264).
len(167, 264, 77).
edge(168, 354).
len(168, 354, 26).
edge(169, 219).
len(169, 219, 33).
edge(170, 329).
len(170, 329, 23).
edge(170, 370).
len(170, 370, 69).
edge(170, 330).
len(170, 330, 62).
edge(170, 230).
len(170, 230, 43).
arc(382, 171).
edge(171, 184).
len(171, 184, 70).
arc(171, 266).
edge(171, 355).
len(171, 355, 45).
edge(172, 315).
len(172, 315, 60).
edge(172, 296).
len(172, 296, 40).
edge(173, 241).
len(173, 241, 74).
edge(173, 220).
len(173, 220, 20).
edge(174, 348).
len(174, 348, 2).
edge(174, 191).
len(174, 191, 86).
edge(174, 396).
len(174, 396, 89).
edge(175, 252).
len(175, 252, 72).
edge(175, 350).
len(175, 350, 60).
edge(175, 210).
len(175, 210, 45).
edge(176, 377).
len(176, 377, 58).
edge(177, 345).
len(177, 345, 35).
edge(177, 208).
len(177, 208, 77).
edge(178, 342).
len(178, 342, 56).
edge(178, 257).
len(178, 257, 52).
edge(178, 220).
len(178, 220, 87).
edge(178, 193).
len(178, 193, 59).
edge(179, 252).
len(179, 252, 90).
edge(179, 312).
len(179, 312, 31).
edge(179, 342).
len(179, 342, 99).
edge(180, 333).
len(180, 333, 72).
edge(180, 360).
len(180, 360, 11).
edge(180, 368).
len(180, 368, 1).
edge(180, 392).
len(180, 392, 85).
edge(181, 304).
len(181, 304, 49).
edge(181, 255).
len(181, 255, 28).
edge(181, 354).
len(181, 354, 38).
edge(182, 377).
len(182, 377, 50).
edge(182, 346).
len(182, 346, 81).
edge(183, 238).
len(183, 238, 8).
edge(183, 327).
len(183, 327, 68).
edge(184, 249).
len(184, 249, 27).
edge(184, 325).
len(184, 325, 38).
edge(184, 363).
len(184, 363, 43).
edge(186, 271).
len(186, 271, 24).
edge(187, 217).
len(187, 217, 21).
edge(187, 310).
len(187, 310, 50).
edge(188, 338).
len(188, 338, 15).
edge(189, 314).
len(189, 314, 30).
edge(190, 243).
len(190, 243, 15).
edge(190, 291).
len(190, 291, 57).
edge(190, 279).
len(190, 279, 85).
edge(191, 333).
len(191, 333, 79).
edge(191, 227).
len(191, 227, 48).
edge(192, 202).
len(192, 202, 88).
edge(192, 366).
len(192, 366, 73).
edge(192, 382).
len(192, 382, 90).
edge(193, 327).
len(193, 327, 48).
edge(193, 322).
len(193, 322, 70).
edge(193, 270).
len(193, 270, 1).
arc(194, 276).
edge(195, 355).
len(195, 355, 78).
edge(195, 276).
len(195, 276, 100).
edge(196, 295).
len(196, 295, 72).
edge(196, 273).
len(196, 273, 63).
edge(198, 375).
len(198, 375, 56).
edge(199, 319).
len(199, 319, 70).
edge(199, 247).
len(199, 247, 65).
edge(200, 360).
len(200, 360, 10).
edge(200, 320).
len(200, 320, 48).
edge(200, 254).
len(200, 254, 50).
edge(200, 316).
len(200, 316, 45).
edge(201, 289).
len(201, 289, 56).
edge(201, 347).
len(201, 347, 95).
edge(202, 204).
len(202, 204, 70).
edge(202, 226).
len(202, 226, 89).
edge(202, 296).
len(202, 296, 44).
edge(202, 389).
len(202, 389, 12).
edge(205, 349).
len(205, 349, 81).
edge(205, 333).
len(205, 333, 6).
edge(205, 372).
len(205, 372, 76).
edge(205, 226).
len(205, 226, 41).
edge(205, 300).
len(205, 300, 92).
edge(205, 290).
len(205, 290, 30).
edge(206, 295).
len(206, 295, 81).
edge(206, 272).
len(206, 272, 18).
edge(207, 276).
len(207, 276, 61).
edge(207, 226).
len(207, 226, 33).
edge(208, 235).
len(208, 235, 19).
edge(208, 287).
len(208, 287, 6).
edge(208, 302).
len(208, 302, 36).
edge(208, 350).
len(208, 350, 34).
edge(208, 369).
len(208, 369, 68).
edge(209, 272).
len(209, 272, 10).
edge(209, 288).
len(209, 288, 39).
edge(209, 358).
len(209, 358, 85).
edge(210, 244).
len(210, 244, 36).
edge(210, 310).
len(210, 310, 42).
edge(211, 321).
len(211, 321, 88).
edge(211, 331).
len(211, 331, 39).
edge(212, 242).
len(212, 242, 62).
edge(212, 389).
len(212, 389, 94).
edge(213, 252).
len(213, 252, 82).
edge(213, 294).
len(213, 294, 47).
edge(213, 326).
len(213, 326, 99).
edge(213, 366).
len(213, 366, 39).
edge(213, 299).
len(213, 299, 59).
edge(214, 215).
len(214, 215, 96).
edge(215, 267).
len(215, 267, 32).
edge(215, 368).
len(215, 368, 68).
edge(215, 323).
len(215, 323, 2).
edge(215, 260).
len(215, 260, 82).
edge(216, 321).
len(216, 321, 73).
arc(216, 295).
edge(217, 283).
len(217, 283, 42).
edge(217, 274).
len(217, 274, 45).
edge(218, 321).
len(218, 321, 58).
edge(219, 360).
len(219, 360, 61).
edge(220, 245).
len(220, 245, 19).
edge(220, 324).
len(220, 324, 38).
edge(220, 221).
len(220, 221, 8).
edge(221, 346).
len(221, 346, 100).
edge(221, 237).
len(221, 237, 84).
edge(221, 267).
len(221, 267, 68).
edge(222, 323).
len(222, 323, 36).
edge(222, 251).
len(222, 251, 37).
edge(223, 249).
len(223, 249, 71).
edge(223, 306).
len(223, 306, 2).
edge(223, 374).
len(223, 374, 60).
edge(223, 230).
len(223, 230, 54).
edge(224, 366).
len(224, 366, 41).
edge(224, 328).
len(224, 328, 33).
edge(224, 274).
len(224, 274, 56).
edge(224, 383).
len(224, 383, 2).
edge(225, 264).
len(225, 264, 63).
edge(225, 372).
len(225, 372, 13).
edge(226, 263).
len(226, 263, 92).
edge(226, 336).
len(226, 336, 12).
edge(227, 294).
len(227, 294, 34).
edge(227, 278).
len(227, 278, 40).
edge(227, 387).
len(227, 387, 64).
edge(227, 320).
len(227, 320, 49).
edge(229, 306).
len(229, 306, 82).
edge(229, 343).
len(229, 343, 17).
edge(229, 317).
len(229, 317, 35).
edge(229, 304).
len(229, 304, 37).
edge(229, 394).
len(229, 394, 26).
edge(230, 393).
len(230, 393, 84).
edge(230, 332).
len(230, 332, 35).
edge(230, 298).
len(230, 298, 55).
edge(231, 354).
len(231, 354, 60).
edge(231, 382).
len(231, 382, 82).
edge(231, 369).
len(231, 369, 67).
edge(232, 400).
len(232, 400, 5).
edge(233, 388).
len(233, 388, 12).
edge(233, 253).
len(233, 253, 94).
edge(234, 325).
len(234, 325, 68).
edge(234, 319).
len(234, 319, 38).
edge(236, 299).
len(236, 299, 24).
edge(236, 297).
len(236, 297, 73).
edge(236, 280).
len(236, 280, 64).
edge(237, 310).
len(237, 310, 9).
edge(237, 325).
len(237, 325, 89).
arc(237, 252).
edge(238, 328).
len(238, 328, 22).
edge(238, 397).
len(238, 397, 80).
edge(238, 333).
len(238, 333, 71).
edge(239, 320).
len(239, 320, 56).
edge(240, 297).
len(240, 297, 38).
edge(242, 266).
len(242, 266, 75).
edge(242, 285).
len(242, 285, 41).
edge(242, 351).
len(242, 351, 27).
edge(243, 326).
len(243, 326, 54).
edge(244, 305).
len(244, 305, 20).
edge(244, 283).
len(244, 283, 72).
edge(245, 277).
len(245, 277, 48).
edge(245, 304).
len(245, 304, 88).
edge(247, 312).
len(247, 312, 32).
edge(247, 305).
len(247, 305, 65).
edge(247, 361).
len(247, 361, 73).
edge(247, 254).
len(247, 254, 39).
edge(248, 268).
len(248, 268, 95).
edge(248, 336).
len(248, 336, 34).
edge(250, 286).
len(250, 286, 9).
edge(251, 333).
len(251, 333, 52).
edge(252, 368).
len(252, 368, 53).
edge(253, 359).
len(253, 359, 96).
edge(253, 285).
len(253, 285, 77).
edge(253, 358).
len(253, 358, 94).
edge(253, 397).
len(253, 397, 83).
edge(254, 334).
len(254, 334, 77).
edge(254, 376).
len(254, 376, 71).
edge(254, 343).
len(254, 343, 9).
edge(255, 325).
len(255, 325, 91).
edge(256, 395).
len(256, 395, 68).
edge(256, 262).
len(256, 262, 98).
edge(257, 344).
len(257, 344, 44).
edge(258, 345).
len(258, 345, 81).
edge(258, 278).
len(258, 278, 98).
edge(258, 392).
len(258, 392, 60).
edge(258, 326).
len(258, 326, 81).
edge(258, 361).
len(258, 361, 78).
edge(259, 265).
len(259, 265, 7).
edge(260, 396).
len(260, 396, 53).
edge(260, 279).
len(260, 279, 9).
edge(261, 293).
len(261, 293, 4).
edge(263, 273).
len(263, 273, 78).
edge(263, 306).
len(263, 306, 48).
edge(263, 333).
len(263, 333, 81).
edge(264, 375).
len(264, 375, 79).
edge(264, 369).
len(264, 369, 1).
edge(264, 378).
len(264, 378, 51).
edge(264, 293).
len(264, 293, 25).
edge(265, 326).
len(265, 326, 56).
edge(269, 370).
len(269, 370, 75).
edge(272, 390).
len(272, 390, 25).
edge(272, 395).
len(272, 395, 60).
edge(272, 330).
len(272, 330, 97).
edge(272, 293).
len(272, 293, 59).
edge(273, 397).
len(273, 397, 37).
edge(273, 373).
len(273, 373, 67).
edge(273, 390).
len(273, 390, 61).
edge(274, 395).
len(274, 395, 55).
edge(274, 364).
len(274, 364, 26).
edge(274, 280).
len(274, 280, 47).
edge(275, 340).
len(275, 340, 98).
edge(278, 388).
len(278, 388, 82).
edge(279, 359).
len(279, 359, 95).
edge(280, 345).
len(280, 345, 58).
edge(282, 315).
len(282, 315, 83).
edge(282, 333).
len(282, 333, 51).
edge(282, 351).
len(282, 351, 90).
edge(282, 358).
len(282, 358, 8).
edge(283, 340).
len(283, 340, 49).
edge(283, 332).
len(283, 332, 58).
edge(283, 319).
len(283, 319, 60).
edge(283, 380).
len(283, 380, 56).
edge(284, 329).
len(284, 329, 33).
edge(284, 323).
len(284, 323, 15).
edge(286, 300).
len(286, 300, 22).
edge(289, 314).
len(289, 314, 39).
edge(290, 367).
len(290, 367, 71).
edge(291, 308).
len(291, 308, 69).
edge(291, 343).
len(291, 343, 38).
edge(291, 333).
len(291, 333, 17).
edge(293, 339).
len(293, 339, 21).
edge(293, 321).
len(293, 321, 21).
edge(294, 351).
len(294, 351, 43).
edge(294, 374).
len(294, 374, 23).
edge(294, 315).
len(294, 315, 64).
edge(295, 329).
len(295, 329, 54).
edge(295, 333).
len(295, 333, 15).
edge(297, 373).
len(297, 373, 91).
edge(298, 357).
len(298, 357, 51).
edge(299, 326).
len(299, 326, 1).
edge(300, 320).
len(300, 320, 63).
edge(302, 372).
len(302, 372, 9).
edge(303, 347).
len(303, 347, 90).
edge(303, 386).
len(303, 386, 25).
edge(304, 358).
len(304, 358, 92).
edge(304, 399).
len(304, 399, 3).
edge(306, 327).
len(306, 327, 21).
edge(306, 346).
len(306, 346, 74).
edge(308, 340).
len(308, 340, 23).
edge(308, 319).
len(308, 319, 23).
edge(310, 356).
len(310, 356, 14).
edge(310, 399).
len(310, 399, 73).
edge(311, 359).
len(311, 359, 18).
edge(313, 345).
len(313, 345, 18).
edge(313, 368).
len(313, 368, 82).
edge(314, 372).
len(314, 372, 22).
edge(314, 353).
len(314, 353, 76).
edge(314, 380).
len(314, 380, 46).
edge(316, 330).
len(316, 330, 5).
edge(316, 334).
len(316, 334, 92).
edge(317, 378).
len(317, 378, 4).
arc(319, 390).
edge(320, 384).
len(320, 384, 45).
edge(321, 370).
len(321, 370, 8).
edge(321, 327).
len(321, 327, 2).
edge(322, 382).
len(322, 382, 40).
edge(322, 360).
len(322, 360, 97).
edge(323, 348).
len(323, 348, 62).
edge(323, 359).
len(323, 359, 1).
edge(323, 334).
len(323, 334, 47).
arc(391, 323).
edge(324, 398).
len(324, 398, 17).
edge(325, 359).
len(325, 359, 10).
edge(326, 396).
len(326, 396, 55).
edge(329, 382).
len(329, 382, 61).
edge(335, 336).
len(335, 336, 95).
edge(336, 377).
len(336, 377, 93).
edge(336, 345).
len(336, 345, 42).
arc(337, 377).
edge(339, 400).
len(339, 400, 29).
arc(340, 357).
edge(340, 354).
len(340, 354, 34).
edge(340, 365).
len(340, 365, 95).
edge(344, 352).
len(344, 352, 74).
edge(345, 366).
len(345, 366, 55).
edge(346, 358).
len(346, 358, 87).
edge(346, 373).
len(346, 373, 27).
edge(348, 388).
len(348, 388, 97).
edge(351, 376).
len(351, 376, 72).
edge(352, 363).
len(352, 363, 64).
edge(353, 369).
len(353, 369, 72).
edge(355, 398).
len(355, 398, 48).
edge(358, 379).
len(358, 379, 42).
edge(360, 370).
len(360, 370, 53).
edge(361, 363).
len(361, 363, 67).
edge(364, 398).
len(364, 398, 48).
edge(367, 376).
len(367, 376, 64).
edge(368, 390).
len(368, 390, 21).
edge(368, 396).
len(368, 396, 26).
edge(370, 388).
len(370, 388, 47).
edge(375, 398).
len(375, 398, 15).
edge(377, 388).
len(377, 388, 68).
edge(379, 381).
len(379, 381, 28).
edge(382, 389).
len(382, 389, 31).
edge(384, 391).
len(384, 391, 7).
edge(386, 387).
len(386, 387, 53).
