vtx(1..470).
edge(1, 138).
len(1, 138, 46).
edge(1, 428).
len(1, 428, 80).
edge(1, 274).
len(1, 274, 43).
edge(2, 89).
len(2, 89, 84).
edge(2, 467).
len(2, 467, 75).
edge(3, 257).
len(3, 257, 14).
edge(3, 107).
len(3, 107, 57).
edge(3, 271).
len(3, 271, 31).
edge(3, 273).
len(3, 273, 32).
edge(3, 261).
len(3, 261, 93).
edge(3, 262).
len(3, 262, 81).
edge(4, 379).
len(4, 379, 97).
edge(4, 63).
len(4, 63, 50).
edge(5, 168).
len(5, 168, 44).
edge(5, 228).
len(5, 228, 4).
edge(5, 251).
len(5, 251, 78).
edge(5, 136).
len(5, 136, 14).
edge(5, 437).
len(5, 437, 97).
edge(6, 431).
len(6, 431, 69).
edge(6, 246).
len(6, 246, 73).
edge(6, 106).
len(6, 106, 2).
edge(7, 90).
len(7, 90, 85).
edge(7, 382).
len(7, 382, 5).
edge(8, 174).
len(8, 174, 62).
edge(9, 336).
len(9, 336, 28).
edge(9, 172).
len(9, 172, 66).
edge(9, 16).
len(9, 16, 12).
edge(10, 89).
len(10, 89, 29).
edge(10, 240).
len(10, 240, 74).
edge(11, 300).
len(11, 300, 37).
edge(11, 295).
len(11, 295, 28).
edge(11, 272).
len(11, 272, 91).
edge(12, 180).
len(12, 180, 17).
edge(12, 328).
len(12, 328, 34).
edge(13, 363).
len(13, 363, 38).
edge(13, 285).
len(13, 285, 27).
edge(13, 235).
len(13, 235, 32).
edge(13, 104).
len(13, 104, 2).
edge(13, 343).
len(13, 343, 87).
edge(13, 150).
len(13, 150, 48).
edge(13, 444).
len(13, 444, 7).
edge(14, 159).
len(14, 159, 19).
edge(14, 31).
len(14, 31, 40).
edge(14, 410).
len(14, 410, 90).
arc(15, 112).
edge(15, 356).
len(15, 356, 70).
edge(15, 44).
len(15, 44, 76).
edge(15, 119).
len(15, 119, 72).
edge(15, 157).
len(15, 157, 34).
arc(16, 356).
edge(16, 238).
len(16, 238, 29).
edge(16, 236).
len(16, 236, 11).
edge(16, 332).
len(16, 332, 14).
edge(17, 180).
len(17, 180, 54).
edge(17, 286).
len(17, 286, 1).
edge(17, 95).
len(17, 95, 76).
edge(17, 348).
len(17, 348, 73).
edge(17, 45).
len(17, 45, 83).
edge(17, 73).
len(17, 73, 42).
arc(18, 175).
edge(18, 84).
len(18, 84, 6).
edge(19, 341).
len(19, 341, 54).
edge(19, 403).
len(19, 403, 15).
edge(19, 94).
len(19, 94, 92).
edge(19, 182).
len(19, 182, 85).
arc(117, 20).
edge(20, 470).
len(20, 470, 61).
edge(21, 422).
len(21, 422, 3).
edge(21, 444).
len(21, 444, 73).
edge(21, 355).
len(21, 355, 56).
edge(21, 357).
len(21, 357, 70).
edge(21, 164).
len(21, 164, 98).
edge(22, 37).
len(22, 37, 61).
arc(199, 22).
edge(23, 467).
len(23, 467, 41).
edge(23, 130).
len(23, 130, 88).
edge(23, 382).
len(23, 382, 90).
edge(23, 248).
len(23, 248, 95).
edge(23, 458).
len(23, 458, 95).
edge(23, 170).
len(23, 170, 52).
edge(23, 37).
len(23, 37, 10).
edge(23, 214).
len(23, 214, 40).
edge(23, 185).
len(23, 185, 88).
edge(24, 105).
len(24, 105, 75).
edge(24, 56).
len(24, 56, 39).
edge(24, 241).
len(24, 241, 99).
edge(24, 387).
len(24, 387, 25).
edge(24, 317).
len(24, 317, 54).
edge(25, 341).
len(25, 341, 11).
edge(25, 74).
len(25, 74, 31).
edge(25, 355).
len(25, 355, 60).
edge(25, 237).
len(25, 237, 84).
edge(25, 187).
len(25, 187, 20).
edge(26, 48).
len(26, 48, 98).
edge(26, 46).
len(26, 46, 29).
edge(26, 256).
len(26, 256, 8).
edge(26, 305).
len(26, 305, 23).
edge(27, 258).
len(27, 258, 30).
edge(27, 383).
len(27, 383, 24).
edge(28, 223).
len(28, 223, 45).
edge(28, 42).
len(28, 42, 26).
edge(28, 157).
len(28, 157, 86).
edge(28, 207).
len(28, 207, 33).
edge(28, 91).
len(28, 91, 4).
edge(29, 442).
len(29, 442, 67).
edge(29, 122).
len(29, 122, 58).
edge(29, 294).
len(29, 294, 21).
edge(30, 407).
len(30, 407, 55).
edge(30, 256).
len(30, 256, 8).
edge(31, 391).
len(31, 391, 91).
edge(31, 431).
len(31, 431, 44).
edge(31, 354).
len(31, 354, 38).
edge(32, 180).
len(32, 180, 6).
edge(33, 288).
len(33, 288, 78).
edge(34, 156).
len(34, 156, 29).
edge(34, 84).
len(34, 84, 6).
edge(34, 240).
len(34, 240, 69).
edge(34, 425).
len(34, 425, 58).
edge(35, 163).
len(35, 163, 53).
edge(35, 84).
len(35, 84, 68).
edge(35, 178).
len(35, 178, 13).
edge(36, 204).
len(36, 204, 75).
edge(36, 268).
len(36, 268, 46).
edge(36, 312).
len(36, 312, 95).
edge(36, 130).
len(36, 130, 46).
edge(36, 466).
len(36, 466, 89).
edge(36, 64).
len(36, 64, 1).
edge(36, 211).
len(36, 211, 85).
edge(37, 248).
len(37, 248, 32).
edge(37, 176).
len(37, 176, 48).
edge(38, 286).
len(38, 286, 35).
edge(38, 164).
len(38, 164, 77).
edge(38, 339).
len(38, 339, 99).
edge(38, 328).
len(38, 328, 67).
edge(39, 205).
len(39, 205, 40).
edge(39, 372).
len(39, 372, 17).
edge(39, 387).
len(39, 387, 84).
edge(39, 153).
len(39, 153, 66).
edge(39, 457).
len(39, 457, 47).
edge(39, 198).
len(39, 198, 83).
edge(39, 86).
len(39, 86, 10).
edge(40, 436).
len(40, 436, 16).
edge(40, 320).
len(40, 320, 35).
edge(40, 161).
len(40, 161, 86).
arc(40, 242).
edge(40, 326).
len(40, 326, 56).
edge(41, 387).
len(41, 387, 71).
edge(41, 319).
len(41, 319, 80).
arc(219, 41).
edge(41, 135).
len(41, 135, 80).
edge(41, 406).
len(41, 406, 64).
edge(41, 413).
len(41, 413, 47).
arc(41, 197).
edge(41, 449).
len(41, 449, 34).
edge(42, 328).
len(42, 328, 55).
edge(42, 369).
len(42, 369, 100).
edge(42, 429).
len(42, 429, 58).
edge(42, 73).
len(42, 73, 99).
edge(43, 76).
len(43, 76, 50).
edge(43, 206).
len(43, 206, 59).
edge(43, 162).
len(43, 162, 84).
edge(44, 227).
len(44, 227, 29).
edge(44, 317).
len(44, 317, 51).
edge(44, 306).
len(44, 306, 76).
edge(45, 333).
len(45, 333, 6).
edge(45, 453).
len(45, 453, 5).
arc(45, 397).
edge(45, 378).
len(45, 378, 16).
edge(45, 108).
len(45, 108, 21).
edge(46, 235).
len(46, 235, 74).
edge(46, 388).
len(46, 388, 26).
edge(46, 203).
len(46, 203, 56).
edge(46, 366).
len(46, 366, 88).
edge(47, 453).
len(47, 453, 65).
edge(47, 355).
len(47, 355, 20).
edge(47, 334).
len(47, 334, 40).
edge(47, 307).
len(47, 307, 22).
edge(47, 315).
len(47, 315, 80).
edge(47, 151).
len(47, 151, 20).
edge(47, 202).
len(47, 202, 13).
edge(48, 214).
len(48, 214, 35).
edge(48, 168).
len(48, 168, 73).
arc(407, 48).
edge(48, 291).
len(48, 291, 4).
edge(48, 421).
len(48, 421, 27).
edge(48, 219).
len(48, 219, 79).
edge(49, 402).
len(49, 402, 87).
edge(49, 275).
len(49, 275, 94).
edge(49, 211).
len(49, 211, 29).
edge(50, 63).
len(50, 63, 27).
edge(50, 222).
len(50, 222, 57).
edge(50, 103).
len(50, 103, 35).
edge(50, 401).
len(50, 401, 85).
edge(50, 466).
len(50, 466, 69).
edge(50, 169).
len(50, 169, 94).
edge(50, 170).
len(50, 170, 29).
edge(51, 82).
len(51, 82, 87).
edge(51, 469).
len(51, 469, 58).
edge(51, 243).
len(51, 243, 34).
edge(52, 61).
len(52, 61, 14).
edge(53, 345).
len(53, 345, 7).
edge(53, 133).
len(53, 133, 91).
edge(53, 81).
len(53, 81, 21).
edge(54, 88).
len(54, 88, 89).
edge(54, 156).
len(54, 156, 77).
edge(55, 265).
len(55, 265, 49).
edge(55, 106).
len(55, 106, 15).
edge(55, 92).
len(55, 92, 94).
edge(55, 261).
len(55, 261, 3).
edge(55, 246).
len(55, 246, 24).
edge(56, 271).
len(56, 271, 95).
edge(56, 242).
len(56, 242, 80).
edge(57, 328).
len(57, 328, 76).
edge(57, 340).
len(57, 340, 63).
edge(57, 372).
len(57, 372, 85).
edge(58, 365).
len(58, 365, 31).
edge(58, 397).
len(58, 397, 43).
edge(58, 83).
len(58, 83, 31).
edge(58, 195).
len(58, 195, 39).
edge(59, 410).
len(59, 410, 64).
edge(59, 378).
len(59, 378, 15).
edge(59, 108).
len(59, 108, 56).
edge(59, 162).
len(59, 162, 30).
edge(59, 446).
len(59, 446, 25).
edge(60, 130).
len(60, 130, 94).
edge(60, 137).
len(60, 137, 45).
edge(60, 435).
len(60, 435, 40).
edge(60, 416).
len(60, 416, 47).
edge(60, 229).
len(60, 229, 2).
edge(60, 305).
len(60, 305, 37).
edge(61, 221).
len(61, 221, 54).
edge(61, 209).
len(61, 209, 55).
edge(62, 149).
len(62, 149, 39).
edge(62, 448).
len(62, 448, 26).
edge(62, 86).
len(62, 86, 76).
edge(63, 221).
len(63, 221, 9).
edge(63, 368).
len(63, 368, 34).
edge(63, 197).
len(63, 197, 66).
edge(63, 195).
len(63, 195, 98).
edge(64, 460).
len(64, 460, 43).
edge(65, 126).
len(65, 126, 63).
edge(65, 192).
len(65, 192, 73).
edge(65, 270).
len(65, 270, 15).
edge(66, 456).
len(66, 456, 97).
edge(67, 383).
len(67, 383, 62).
arc(68, 455).
edge(68, 401).
len(68, 401, 95).
edge(68, 222).
len(68, 222, 39).
edge(68, 315).
len(68, 315, 54).
edge(68, 400).
len(68, 400, 36).
edge(69, 248).
len(69, 248, 21).
edge(69, 461).
len(69, 461, 84).
edge(69, 115).
len(69, 115, 10).
edge(69, 80).
len(69, 80, 38).
edge(69, 89).
len(69, 89, 22).
edge(70, 236).
len(70, 236, 76).
edge(70, 139).
len(70, 139, 50).
edge(70, 214).
len(70, 214, 58).
edge(71, 267).
len(71, 267, 99).
arc(71, 338).
edge(71, 404).
len(71, 404, 47).
edge(71, 132).
len(71, 132, 93).
edge(71, 247).
len(71, 247, 19).
edge(71, 212).
len(71, 212, 96).
edge(72, 121).
len(72, 121, 95).
edge(72, 109).
len(72, 109, 14).
edge(73, 128).
len(73, 128, 62).
edge(73, 225).
len(73, 225, 23).
edge(73, 463).
len(73, 463, 51).
edge(74, 369).
len(74, 369, 18).
edge(74, 245).
len(74, 245, 72).
edge(74, 309).
len(74, 309, 44).
edge(74, 127).
len(74, 127, 53).
edge(75, 152).
len(75, 152, 77).
edge(75, 404).
len(75, 404, 92).
edge(75, 330).
len(75, 330, 79).
edge(75, 297).
len(75, 297, 88).
edge(75, 81).
len(75, 81, 89).
edge(76, 202).
len(76, 202, 1).
edge(76, 467).
len(76, 467, 13).
edge(76, 169).
len(76, 169, 65).
edge(76, 367).
len(76, 367, 29).
edge(76, 433).
len(76, 433, 84).
edge(76, 98).
len(76, 98, 30).
edge(76, 462).
len(76, 462, 13).
edge(77, 214).
len(77, 214, 27).
arc(77, 438).
edge(78, 384).
len(78, 384, 99).
edge(78, 315).
len(78, 315, 14).
edge(78, 94).
len(78, 94, 32).
arc(79, 183).
edge(80, 400).
len(80, 400, 13).
edge(80, 396).
len(80, 396, 52).
edge(80, 224).
len(80, 224, 38).
edge(80, 136).
len(80, 136, 47).
edge(80, 286).
len(80, 286, 92).
edge(81, 401).
len(81, 401, 37).
edge(81, 275).
len(81, 275, 69).
edge(81, 464).
len(81, 464, 90).
edge(81, 220).
len(81, 220, 66).
edge(82, 168).
len(82, 168, 63).
edge(82, 333).
len(82, 333, 78).
edge(82, 399).
len(82, 399, 56).
edge(83, 205).
len(83, 205, 39).
edge(84, 316).
len(84, 316, 54).
edge(84, 200).
len(84, 200, 22).
edge(84, 203).
len(84, 203, 37).
edge(85, 311).
len(85, 311, 76).
edge(85, 248).
len(85, 248, 37).
edge(85, 138).
len(85, 138, 1).
edge(85, 451).
len(85, 451, 10).
edge(85, 354).
len(85, 354, 22).
edge(86, 453).
len(86, 453, 55).
edge(86, 237).
len(86, 237, 2).
edge(86, 403).
len(86, 403, 11).
edge(87, 100).
len(87, 100, 45).
edge(87, 192).
len(87, 192, 12).
edge(88, 173).
len(88, 173, 76).
edge(88, 178).
len(88, 178, 92).
edge(88, 390).
len(88, 390, 82).
edge(89, 373).
len(89, 373, 52).
edge(89, 466).
len(89, 466, 11).
edge(90, 262).
len(90, 262, 60).
edge(90, 148).
len(90, 148, 22).
edge(90, 351).
len(90, 351, 55).
edge(90, 117).
len(90, 117, 18).
edge(91, 345).
len(91, 345, 26).
edge(91, 107).
len(91, 107, 25).
edge(91, 309).
len(91, 309, 70).
edge(91, 344).
len(91, 344, 40).
edge(92, 200).
len(92, 200, 55).
edge(92, 165).
len(92, 165, 69).
edge(93, 263).
len(93, 263, 55).
edge(93, 412).
len(93, 412, 87).
edge(93, 112).
len(93, 112, 3).
edge(94, 220).
len(94, 220, 37).
edge(94, 228).
len(94, 228, 91).
edge(94, 453).
len(94, 453, 29).
edge(94, 190).
len(94, 190, 46).
edge(95, 109).
len(95, 109, 27).
edge(96, 293).
len(96, 293, 94).
edge(97, 287).
len(97, 287, 27).
edge(97, 322).
len(97, 322, 41).
edge(97, 407).
len(97, 407, 64).
edge(97, 414).
len(97, 414, 20).
edge(97, 163).
len(97, 163, 20).
edge(98, 302).
len(98, 302, 99).
edge(98, 390).
len(98, 390, 8).
edge(98, 331).
len(98, 331, 75).
edge(98, 404).
len(98, 404, 17).
edge(98, 301).
len(98, 301, 64).
edge(99, 162).
len(99, 162, 80).
edge(100, 315).
len(100, 315, 62).
edge(101, 209).
len(101, 209, 50).
edge(101, 226).
len(101, 226, 5).
edge(101, 246).
len(101, 246, 84).
edge(102, 224).
len(102, 224, 70).
edge(102, 362).
len(102, 362, 97).
edge(102, 291).
len(102, 291, 62).
edge(102, 316).
len(102, 316, 37).
edge(103, 142).
len(103, 142, 85).
edge(103, 347).
len(103, 347, 30).
edge(103, 153).
len(103, 153, 10).
edge(103, 344).
len(103, 344, 1).
edge(103, 307).
len(103, 307, 61).
edge(103, 463).
len(103, 463, 33).
edge(103, 423).
len(103, 423, 74).
edge(103, 230).
len(103, 230, 69).
edge(104, 306).
len(104, 306, 40).
edge(104, 122).
len(104, 122, 8).
edge(104, 337).
len(104, 337, 65).
edge(105, 455).
len(105, 455, 16).
edge(105, 360).
len(105, 360, 11).
edge(106, 154).
len(106, 154, 9).
edge(106, 171).
len(106, 171, 22).
edge(107, 277).
len(107, 277, 61).
edge(107, 148).
len(107, 148, 59).
edge(107, 264).
len(107, 264, 54).
edge(107, 215).
len(107, 215, 60).
edge(108, 256).
len(108, 256, 69).
edge(108, 353).
len(108, 353, 40).
edge(108, 259).
len(108, 259, 27).
edge(109, 469).
len(109, 469, 13).
edge(109, 193).
len(109, 193, 84).
edge(109, 249).
len(109, 249, 82).
edge(109, 360).
len(109, 360, 5).
edge(109, 207).
len(109, 207, 87).
edge(109, 245).
len(109, 245, 70).
edge(110, 452).
len(110, 452, 26).
edge(110, 304).
len(110, 304, 42).
edge(110, 264).
len(110, 264, 42).
edge(110, 283).
len(110, 283, 35).
edge(111, 130).
len(111, 130, 9).
edge(111, 239).
len(111, 239, 12).
edge(111, 144).
len(111, 144, 98).
edge(111, 252).
len(111, 252, 76).
edge(111, 205).
len(111, 205, 20).
edge(112, 135).
len(112, 135, 98).
edge(112, 334).
len(112, 334, 58).
edge(112, 434).
len(112, 434, 1).
edge(113, 265).
len(113, 265, 19).
edge(113, 310).
len(113, 310, 57).
edge(113, 404).
len(113, 404, 8).
edge(113, 126).
len(113, 126, 2).
edge(113, 216).
len(113, 216, 87).
edge(114, 422).
len(114, 422, 79).
edge(114, 150).
len(114, 150, 82).
edge(114, 184).
len(114, 184, 81).
edge(114, 265).
len(114, 265, 20).
edge(115, 422).
len(115, 422, 64).
edge(115, 469).
len(115, 469, 31).
edge(115, 440).
len(115, 440, 14).
edge(116, 360).
len(116, 360, 35).
edge(116, 280).
len(116, 280, 2).
edge(117, 211).
len(117, 211, 62).
edge(117, 418).
len(117, 418, 87).
edge(117, 386).
len(117, 386, 21).
edge(118, 216).
len(118, 216, 96).
edge(118, 201).
len(118, 201, 38).
edge(118, 256).
len(118, 256, 95).
edge(118, 362).
len(118, 362, 2).
edge(118, 298).
len(118, 298, 10).
edge(119, 307).
len(119, 307, 60).
arc(119, 349).
edge(119, 386).
len(119, 386, 74).
edge(120, 257).
len(120, 257, 56).
edge(121, 274).
len(121, 274, 40).
edge(121, 152).
len(121, 152, 9).
edge(121, 297).
len(121, 297, 76).
edge(121, 340).
len(121, 340, 68).
edge(121, 461).
len(121, 461, 80).
edge(122, 261).
len(122, 261, 44).
edge(122, 287).
len(122, 287, 51).
arc(300, 122).
edge(122, 470).
len(122, 470, 48).
edge(123, 257).
len(123, 257, 50).
edge(123, 361).
len(123, 361, 58).
edge(123, 296).
len(123, 296, 93).
edge(123, 415).
len(123, 415, 18).
arc(224, 124).
edge(124, 302).
len(124, 302, 99).
edge(124, 338).
len(124, 338, 71).
edge(125, 413).
len(125, 413, 11).
edge(125, 216).
len(125, 216, 71).
edge(125, 217).
len(125, 217, 26).
edge(125, 400).
len(125, 400, 82).
edge(125, 427).
len(125, 427, 83).
edge(126, 215).
len(126, 215, 13).
edge(126, 424).
len(126, 424, 18).
edge(127, 207).
len(127, 207, 37).
edge(127, 175).
len(127, 175, 4).
edge(127, 362).
len(127, 362, 16).
edge(128, 301).
len(128, 301, 67).
edge(128, 428).
len(128, 428, 46).
edge(128, 141).
len(128, 141, 32).
edge(129, 438).
len(129, 438, 5).
edge(129, 277).
len(129, 277, 10).
edge(129, 211).
len(129, 211, 37).
edge(130, 411).
len(130, 411, 64).
edge(130, 218).
len(130, 218, 13).
edge(130, 327).
len(130, 327, 67).
edge(130, 374).
len(130, 374, 11).
edge(131, 446).
len(131, 446, 55).
edge(132, 455).
len(132, 455, 77).
edge(132, 319).
len(132, 319, 35).
edge(132, 202).
len(132, 202, 59).
edge(132, 444).
len(132, 444, 10).
edge(132, 260).
len(132, 260, 45).
edge(133, 415).
len(133, 415, 68).
edge(133, 301).
len(133, 301, 36).
edge(133, 457).
len(133, 457, 71).
edge(134, 144).
len(134, 144, 79).
edge(134, 462).
len(134, 462, 55).
edge(134, 370).
len(134, 370, 65).
edge(134, 324).
len(134, 324, 68).
edge(135, 357).
len(135, 357, 34).
edge(135, 143).
len(135, 143, 61).
edge(135, 192).
len(135, 192, 85).
arc(137, 362).
edge(138, 222).
len(138, 222, 90).
edge(138, 194).
len(138, 194, 19).
edge(138, 272).
len(138, 272, 34).
edge(139, 395).
len(139, 395, 49).
edge(139, 176).
len(139, 176, 73).
edge(139, 404).
len(139, 404, 80).
edge(140, 209).
len(140, 209, 48).
edge(142, 171).
len(142, 171, 54).
edge(142, 470).
len(142, 470, 70).
edge(142, 195).
len(142, 195, 11).
edge(142, 175).
len(142, 175, 12).
edge(142, 359).
len(142, 359, 54).
edge(143, 229).
len(143, 229, 5).
edge(143, 198).
len(143, 198, 2).
edge(143, 411).
len(143, 411, 18).
edge(143, 186).
len(143, 186, 57).
edge(144, 439).
len(144, 439, 29).
edge(144, 431).
len(144, 431, 2).
edge(144, 277).
len(144, 277, 21).
edge(144, 342).
len(144, 342, 62).
edge(144, 360).
len(144, 360, 25).
edge(145, 312).
len(145, 312, 43).
edge(145, 156).
len(145, 156, 28).
edge(146, 275).
len(146, 275, 14).
edge(147, 297).
len(147, 297, 48).
edge(147, 254).
len(147, 254, 1).
edge(147, 286).
len(147, 286, 76).
edge(149, 305).
len(149, 305, 84).
edge(149, 377).
len(149, 377, 94).
edge(150, 434).
len(150, 434, 23).
arc(357, 150).
edge(150, 173).
len(150, 173, 80).
edge(151, 289).
len(151, 289, 94).
edge(151, 450).
len(151, 450, 64).
edge(151, 400).
len(151, 400, 33).
edge(152, 200).
len(152, 200, 76).
edge(153, 161).
len(153, 161, 2).
edge(153, 318).
len(153, 318, 54).
edge(153, 294).
len(153, 294, 6).
edge(153, 460).
len(153, 460, 61).
edge(153, 291).
len(153, 291, 45).
edge(154, 325).
len(154, 325, 40).
edge(154, 168).
len(154, 168, 90).
edge(154, 388).
len(154, 388, 26).
edge(154, 308).
len(154, 308, 50).
edge(155, 227).
len(155, 227, 50).
edge(155, 270).
len(155, 270, 56).
edge(155, 354).
len(155, 354, 81).
edge(156, 191).
len(156, 191, 66).
edge(156, 258).
len(156, 258, 68).
edge(156, 275).
len(156, 275, 60).
edge(157, 451).
len(157, 451, 36).
edge(157, 445).
len(157, 445, 38).
edge(157, 252).
len(157, 252, 65).
edge(158, 169).
len(158, 169, 13).
edge(158, 251).
len(158, 251, 10).
edge(158, 398).
len(158, 398, 11).
edge(159, 338).
len(159, 338, 55).
edge(159, 264).
len(159, 264, 36).
edge(159, 468).
len(159, 468, 59).
edge(159, 200).
len(159, 200, 70).
edge(160, 165).
len(160, 165, 25).
edge(160, 291).
len(160, 291, 5).
edge(160, 181).
len(160, 181, 44).
edge(161, 290).
len(161, 290, 58).
edge(162, 353).
len(162, 353, 9).
edge(162, 234).
len(162, 234, 69).
edge(162, 334).
len(162, 334, 84).
edge(162, 208).
len(162, 208, 61).
edge(162, 417).
len(162, 417, 29).
edge(163, 457).
len(163, 457, 86).
edge(163, 196).
len(163, 196, 1).
edge(163, 393).
len(163, 393, 70).
edge(163, 300).
len(163, 300, 21).
edge(164, 257).
len(164, 257, 57).
edge(164, 428).
len(164, 428, 1).
edge(164, 167).
len(164, 167, 45).
edge(164, 399).
len(164, 399, 1).
edge(165, 283).
len(165, 283, 26).
edge(166, 409).
len(166, 409, 24).
edge(167, 378).
len(167, 378, 86).
edge(167, 470).
len(167, 470, 34).
edge(168, 215).
len(168, 215, 68).
edge(168, 456).
len(168, 456, 34).
edge(168, 329).
len(168, 329, 23).
edge(169, 223).
len(169, 223, 94).
edge(169, 455).
len(169, 455, 4).
edge(170, 259).
len(170, 259, 20).
edge(170, 376).
len(170, 376, 51).
edge(171, 221).
len(171, 221, 87).
edge(171, 270).
len(171, 270, 1).
edge(171, 365).
len(171, 365, 96).
edge(171, 180).
len(171, 180, 19).
edge(172, 227).
len(172, 227, 62).
edge(172, 381).
len(172, 381, 10).
edge(172, 447).
len(172, 447, 18).
edge(172, 175).
len(172, 175, 63).
edge(173, 175).
len(173, 175, 2).
edge(173, 245).
len(173, 245, 34).
edge(173, 267).
len(173, 267, 45).
edge(174, 446).
len(174, 446, 13).
edge(174, 210).
len(174, 210, 56).
edge(174, 304).
len(174, 304, 84).
edge(176, 348).
len(176, 348, 56).
edge(176, 426).
len(176, 426, 7).
edge(176, 241).
len(176, 241, 61).
edge(176, 230).
len(176, 230, 87).
edge(177, 257).
len(177, 257, 49).
edge(177, 437).
len(177, 437, 67).
edge(177, 320).
len(177, 320, 86).
edge(177, 277).
len(177, 277, 2).
edge(178, 353).
len(178, 353, 100).
edge(178, 381).
len(178, 381, 11).
edge(178, 313).
len(178, 313, 75).
edge(178, 410).
len(178, 410, 77).
arc(178, 383).
edge(179, 197).
len(179, 197, 39).
edge(179, 279).
len(179, 279, 81).
edge(181, 464).
len(181, 464, 42).
edge(182, 337).
len(182, 337, 78).
edge(183, 444).
len(183, 444, 17).
edge(185, 398).
len(185, 398, 74).
edge(186, 354).
len(186, 354, 47).
edge(186, 288).
len(186, 288, 39).
edge(187, 253).
len(187, 253, 21).
edge(187, 386).
len(187, 386, 49).
edge(187, 291).
len(187, 291, 91).
edge(187, 328).
len(187, 328, 97).
edge(187, 375).
len(187, 375, 66).
edge(188, 371).
len(188, 371, 28).
edge(188, 309).
len(188, 309, 7).
edge(189, 334).
len(189, 334, 16).
arc(268, 189).
edge(189, 236).
len(189, 236, 82).
edge(190, 202).
len(190, 202, 4).
edge(191, 348).
len(191, 348, 88).
edge(191, 234).
len(191, 234, 58).
edge(191, 219).
len(191, 219, 97).
edge(192, 299).
len(192, 299, 83).
edge(192, 427).
len(192, 427, 28).
edge(193, 441).
len(193, 441, 24).
edge(193, 249).
len(193, 249, 23).
edge(194, 307).
len(194, 307, 76).
edge(194, 443).
len(194, 443, 83).
edge(195, 370).
len(195, 370, 27).
edge(195, 452).
len(195, 452, 10).
edge(195, 207).
len(195, 207, 88).
edge(196, 448).
len(196, 448, 30).
edge(196, 305).
len(196, 305, 67).
edge(196, 216).
len(196, 216, 23).
edge(196, 243).
len(196, 243, 94).
edge(197, 328).
len(197, 328, 67).
edge(197, 217).
len(197, 217, 19).
edge(197, 317).
len(197, 317, 32).
edge(197, 438).
len(197, 438, 59).
edge(198, 200).
len(198, 200, 41).
edge(198, 460).
len(198, 460, 29).
edge(198, 470).
len(198, 470, 97).
edge(198, 418).
len(198, 418, 18).
edge(199, 217).
len(199, 217, 74).
edge(199, 454).
len(199, 454, 65).
edge(200, 378).
len(200, 378, 14).
edge(200, 238).
len(200, 238, 26).
edge(200, 282).
len(200, 282, 79).
arc(336, 201).
edge(201, 346).
len(201, 346, 9).
edge(201, 236).
len(201, 236, 79).
edge(202, 290).
len(202, 290, 91).
edge(202, 270).
len(202, 270, 9).
edge(205, 411).
len(205, 411, 4).
edge(205, 347).
len(205, 347, 75).
edge(205, 206).
len(205, 206, 51).
arc(274, 205).
edge(206, 379).
len(206, 379, 82).
edge(206, 388).
len(206, 388, 88).
edge(206, 378).
len(206, 378, 43).
edge(207, 323).
len(207, 323, 63).
edge(207, 275).
len(207, 275, 67).
edge(208, 446).
len(208, 446, 39).
edge(208, 398).
len(208, 398, 17).
edge(208, 324).
len(208, 324, 93).
edge(209, 210).
len(209, 210, 63).
edge(209, 224).
len(209, 224, 39).
arc(380, 209).
edge(210, 321).
len(210, 321, 13).
arc(210, 255).
edge(210, 435).
len(210, 435, 35).
edge(211, 381).
len(211, 381, 90).
edge(211, 288).
len(211, 288, 99).
edge(211, 348).
len(211, 348, 79).
edge(212, 221).
len(212, 221, 62).
edge(213, 446).
len(213, 446, 53).
arc(417, 213).
edge(214, 297).
len(214, 297, 22).
edge(214, 386).
len(214, 386, 10).
edge(215, 411).
len(215, 411, 26).
edge(218, 292).
len(218, 292, 19).
edge(218, 419).
len(218, 419, 88).
edge(218, 381).
len(218, 381, 3).
edge(219, 266).
len(219, 266, 43).
edge(219, 440).
len(219, 440, 6).
edge(220, 261).
len(220, 261, 36).
edge(221, 285).
len(221, 285, 17).
edge(221, 383).
len(221, 383, 29).
edge(221, 413).
len(221, 413, 7).
edge(222, 281).
len(222, 281, 10).
edge(222, 364).
len(222, 364, 74).
edge(223, 279).
len(223, 279, 40).
edge(224, 439).
len(224, 439, 18).
edge(224, 294).
len(224, 294, 73).
edge(224, 366).
len(224, 366, 19).
edge(225, 359).
len(225, 359, 14).
edge(226, 430).
len(226, 430, 11).
edge(227, 354).
len(227, 354, 93).
edge(227, 316).
len(227, 316, 19).
edge(228, 441).
len(228, 441, 87).
edge(228, 281).
len(228, 281, 39).
edge(229, 430).
len(229, 430, 56).
edge(229, 406).
len(229, 406, 4).
edge(229, 424).
len(229, 424, 2).
edge(229, 434).
len(229, 434, 22).
edge(229, 354).
len(229, 354, 63).
edge(230, 291).
len(230, 291, 52).
edge(230, 409).
len(230, 409, 92).
edge(231, 376).
len(231, 376, 83).
edge(232, 415).
len(232, 415, 61).
edge(233, 234).
len(233, 234, 59).
edge(233, 276).
len(233, 276, 49).
edge(233, 329).
len(233, 329, 68).
edge(234, 339).
len(234, 339, 51).
edge(235, 451).
len(235, 451, 31).
edge(235, 413).
len(235, 413, 29).
edge(235, 361).
len(235, 361, 52).
edge(235, 341).
len(235, 341, 71).
edge(235, 372).
len(235, 372, 64).
edge(235, 409).
len(235, 409, 15).
edge(235, 312).
len(235, 312, 47).
edge(235, 253).
len(235, 253, 98).
edge(236, 256).
len(236, 256, 71).
edge(236, 290).
len(236, 290, 78).
edge(238, 424).
len(238, 424, 33).
edge(238, 382).
len(238, 382, 88).
edge(238, 312).
len(238, 312, 87).
edge(240, 403).
len(240, 403, 68).
edge(240, 319).
len(240, 319, 55).
edge(240, 382).
len(240, 382, 98).
edge(241, 267).
len(241, 267, 35).
edge(241, 282).
len(241, 282, 50).
edge(241, 348).
len(241, 348, 5).
edge(242, 343).
len(242, 343, 67).
edge(242, 425).
len(242, 425, 17).
edge(242, 420).
len(242, 420, 20).
edge(243, 441).
len(243, 441, 55).
edge(243, 342).
len(243, 342, 30).
edge(243, 363).
len(243, 363, 86).
edge(243, 377).
len(243, 377, 5).
edge(244, 465).
len(244, 465, 22).
edge(244, 336).
len(244, 336, 77).
edge(245, 377).
len(245, 377, 7).
edge(245, 457).
len(245, 457, 86).
edge(246, 438).
len(246, 438, 80).
edge(247, 269).
len(247, 269, 71).
edge(247, 406).
len(247, 406, 73).
edge(248, 278).
len(248, 278, 50).
edge(248, 421).
len(248, 421, 65).
edge(248, 441).
len(248, 441, 39).
edge(248, 406).
len(248, 406, 15).
edge(249, 419).
len(249, 419, 4).
edge(249, 445).
len(249, 445, 58).
edge(249, 447).
len(249, 447, 19).
edge(250, 387).
len(250, 387, 57).
edge(250, 274).
len(250, 274, 59).
edge(251, 266).
len(251, 266, 42).
edge(251, 388).
len(251, 388, 72).
edge(251, 465).
len(251, 465, 38).
edge(252, 345).
len(252, 345, 92).
edge(252, 299).
len(252, 299, 65).
edge(252, 293).
len(252, 293, 77).
edge(253, 300).
len(253, 300, 98).
edge(254, 440).
len(254, 440, 49).
edge(254, 396).
len(254, 396, 33).
edge(255, 329).
len(255, 329, 22).
edge(255, 257).
len(255, 257, 15).
edge(255, 335).
len(255, 335, 55).
edge(255, 419).
len(255, 419, 62).
edge(256, 339).
len(256, 339, 24).
edge(256, 406).
len(256, 406, 6).
edge(256, 383).
len(256, 383, 8).
edge(256, 326).
len(256, 326, 14).
edge(257, 447).
len(257, 447, 10).
edge(257, 324).
len(257, 324, 80).
edge(258, 277).
len(258, 277, 71).
edge(258, 396).
len(258, 396, 37).
edge(258, 416).
len(258, 416, 1).
arc(337, 258).
edge(258, 262).
len(258, 262, 50).
edge(259, 408).
len(259, 408, 48).
edge(259, 429).
len(259, 429, 25).
edge(260, 420).
len(260, 420, 21).
edge(260, 283).
len(260, 283, 16).
edge(261, 285).
len(261, 285, 12).
edge(261, 372).
len(261, 372, 89).
edge(261, 346).
len(261, 346, 87).
edge(261, 369).
len(261, 369, 87).
edge(264, 279).
len(264, 279, 10).
edge(264, 296).
len(264, 296, 62).
edge(265, 398).
len(265, 398, 54).
edge(265, 321).
len(265, 321, 25).
edge(265, 339).
len(265, 339, 48).
edge(266, 329).
len(266, 329, 59).
edge(266, 313).
len(266, 313, 25).
edge(269, 356).
len(269, 356, 42).
edge(270, 403).
len(270, 403, 83).
edge(271, 453).
len(271, 453, 57).
edge(271, 418).
len(271, 418, 89).
edge(272, 396).
len(272, 396, 69).
edge(273, 331).
len(273, 331, 23).
edge(275, 445).
len(275, 445, 16).
edge(276, 283).
len(276, 283, 1).
edge(276, 328).
len(276, 328, 29).
edge(277, 281).
len(277, 281, 16).
edge(279, 357).
len(279, 357, 79).
edge(279, 360).
len(279, 360, 8).
edge(279, 376).
len(279, 376, 75).
edge(279, 355).
len(279, 355, 89).
edge(280, 368).
len(280, 368, 88).
edge(280, 303).
len(280, 303, 55).
edge(282, 370).
len(282, 370, 93).
edge(283, 367).
len(283, 367, 85).
edge(283, 451).
len(283, 451, 28).
edge(284, 365).
len(284, 365, 58).
edge(286, 447).
len(286, 447, 85).
arc(286, 437).
edge(288, 433).
len(288, 433, 2).
edge(290, 394).
len(290, 394, 86).
edge(290, 406).
len(290, 406, 26).
edge(291, 402).
len(291, 402, 20).
edge(291, 342).
len(291, 342, 79).
edge(291, 450).
len(291, 450, 15).
edge(294, 426).
len(294, 426, 24).
edge(294, 319).
len(294, 319, 29).
edge(294, 420).
len(294, 420, 77).
edge(296, 358).
len(296, 358, 2).
edge(296, 396).
len(296, 396, 33).
edge(296, 446).
len(296, 446, 35).
edge(296, 302).
len(296, 302, 76).
edge(298, 418).
len(298, 418, 80).
edge(298, 470).
len(298, 470, 36).
edge(299, 317).
len(299, 317, 63).
edge(299, 419).
len(299, 419, 73).
edge(302, 448).
len(302, 448, 46).
edge(302, 429).
len(302, 429, 56).
edge(302, 325).
len(302, 325, 38).
edge(303, 346).
len(303, 346, 15).
edge(305, 438).
len(305, 438, 2).
edge(305, 337).
len(305, 337, 33).
edge(305, 393).
len(305, 393, 2).
edge(306, 405).
len(306, 405, 12).
edge(306, 446).
len(306, 446, 97).
edge(306, 330).
len(306, 330, 68).
edge(306, 465).
len(306, 465, 52).
edge(307, 427).
len(307, 427, 75).
edge(308, 370).
len(308, 370, 47).
edge(309, 358).
len(309, 358, 71).
edge(309, 437).
len(309, 437, 62).
edge(309, 369).
len(309, 369, 25).
edge(311, 320).
len(311, 320, 86).
edge(311, 438).
len(311, 438, 77).
edge(312, 389).
len(312, 389, 57).
edge(314, 425).
len(314, 425, 38).
edge(314, 460).
len(314, 460, 62).
edge(314, 470).
len(314, 470, 30).
edge(317, 460).
len(317, 460, 92).
edge(318, 429).
len(318, 429, 36).
edge(318, 457).
len(318, 457, 70).
edge(320, 402).
len(320, 402, 44).
edge(322, 356).
len(322, 356, 14).
edge(322, 446).
len(322, 446, 89).
edge(324, 379).
len(324, 379, 72).
edge(324, 360).
len(324, 360, 37).
edge(324, 338).
len(324, 338, 51).
edge(325, 379).
len(325, 379, 35).
edge(325, 442).
len(325, 442, 53).
edge(326, 406).
len(326, 406, 40).
edge(327, 452).
len(327, 452, 26).
edge(328, 464).
len(328, 464, 68).
edge(328, 441).
len(328, 441, 59).
edge(328, 454).
len(328, 454, 43).
edge(329, 368).
len(329, 368, 71).
edge(329, 465).
len(329, 465, 86).
edge(330, 369).
len(330, 369, 80).
edge(330, 350).
len(330, 350, 93).
edge(332, 340).
len(332, 340, 6).
edge(332, 364).
len(332, 364, 11).
edge(332, 370).
len(332, 370, 25).
edge(335, 432).
len(335, 432, 18).
edge(336, 410).
len(336, 410, 39).
edge(336, 412).
len(336, 412, 64).
edge(336, 396).
len(336, 396, 2).
edge(337, 432).
len(337, 432, 95).
edge(339, 386).
len(339, 386, 11).
arc(340, 414).
edge(340, 457).
len(340, 457, 7).
edge(341, 364).
len(341, 364, 9).
arc(342, 444).
edge(343, 440).
len(343, 440, 91).
edge(343, 465).
len(343, 465, 60).
edge(344, 380).
len(344, 380, 2).
edge(344, 350).
len(344, 350, 91).
edge(345, 434).
len(345, 434, 34).
arc(462, 346).
edge(346, 430).
len(346, 430, 82).
edge(346, 443).
len(346, 443, 35).
edge(347, 423).
len(347, 423, 43).
edge(352, 468).
len(352, 468, 14).
edge(352, 432).
len(352, 432, 35).
edge(353, 375).
len(353, 375, 19).
edge(354, 470).
len(354, 470, 58).
edge(354, 428).
len(354, 428, 14).
edge(355, 357).
len(355, 357, 5).
edge(355, 403).
len(355, 403, 5).
edge(356, 391).
len(356, 391, 33).
edge(356, 420).
len(356, 420, 51).
edge(356, 396).
len(356, 396, 2).
edge(357, 432).
len(357, 432, 15).
edge(357, 438).
len(357, 438, 62).
edge(359, 387).
len(359, 387, 61).
edge(359, 418).
len(359, 418, 96).
edge(364, 428).
len(364, 428, 91).
edge(366, 415).
len(366, 415, 43).
edge(366, 428).
len(366, 428, 37).
edge(367, 405).
len(367, 405, 51).
edge(369, 442).
len(369, 442, 3).
edge(369, 431).
len(369, 431, 69).
edge(369, 432).
len(369, 432, 27).
edge(369, 468).
len(369, 468, 29).
edge(370, 451).
len(370, 451, 52).
edge(371, 397).
len(371, 397, 26).
edge(371, 378).
len(371, 378, 56).
edge(372, 399).
len(372, 399, 46).
edge(375, 457).
len(375, 457, 23).
edge(376, 383).
len(376, 383, 67).
edge(380, 449).
len(380, 449, 35).
edge(383, 431).
len(383, 431, 37).
edge(385, 419).
len(385, 419, 72).
edge(386, 445).
len(386, 445, 92).
edge(391, 409).
len(391, 409, 8).
edge(392, 420).
len(392, 420, 79).
edge(393, 425).
len(393, 425, 92).
edge(393, 442).
len(393, 442, 2).
edge(395, 412).
len(395, 412, 15).
edge(395, 467).
len(395, 467, 16).
edge(396, 461).
len(396, 461, 74).
edge(398, 447).
len(398, 447, 88).
edge(398, 409).
len(398, 409, 24).
edge(400, 444).
len(400, 444, 53).
edge(403, 452).
len(403, 452, 50).
edge(403, 444).
len(403, 444, 92).
edge(404, 442).
len(404, 442, 55).
edge(405, 423).
len(405, 423, 25).
edge(405, 435).
len(405, 435, 82).
edge(407, 427).
len(407, 427, 15).
edge(410, 414).
len(410, 414, 93).
edge(412, 418).
len(412, 418, 80).
edge(414, 465).
len(414, 465, 36).
edge(415, 450).
len(415, 450, 57).
edge(415, 469).
len(415, 469, 90).
edge(418, 439).
len(418, 439, 69).
edge(419, 436).
len(419, 436, 38).
edge(420, 429).
len(420, 429, 64).
edge(421, 459).
len(421, 459, 12).
edge(423, 443).
len(423, 443, 84).
edge(427, 468).
len(427, 468, 58).
edge(427, 447).
len(427, 447, 73).
edge(428, 433).
len(428, 433, 43).
edge(432, 436).
len(432, 436, 55).
edge(435, 443).
len(435, 443, 80).
edge(436, 470).
len(436, 470, 100).
edge(440, 460).
len(440, 460, 32).
edge(440, 442).
len(440, 442, 75).
edge(443, 449).
len(443, 449, 58).
edge(445, 467).
len(445, 467, 30).
edge(450, 466).
len(450, 466, 2).
